supercell of natacl6_p21c.cif           
   1.00000000000000     
    12.8086700406632197    0.0000004227264436   -0.0315492974735766
     0.0000004651105324   13.6960863482870359   -0.0000019106395650
    -0.3327533513840475   -0.0000026420200669   18.8435734257652570
   Na   Ta   Cl
    16    16    96
Direct
  0.3949359654116051  0.0951255640877804  0.7473372331559176
  0.1050639962473312  0.3451256017341677  0.7526627459005724
  0.1050640347673735  0.4048744350896314  0.2526627675220183
  0.3949360048069366  0.1548743975631410  0.2473372545514607
  0.8949359654116051  0.0951255640877804  0.7473372331559176
  0.6050639962473312  0.3451256017341677  0.7526627459005724
  0.6050640347673735  0.4048744350896385  0.2526627675220183
  0.8949360048069366  0.1548743975631410  0.2473372545514607
  0.3949359654116051  0.5951255640877804  0.7473372331559176
  0.1050639962473312  0.8451256017341677  0.7526627459005724
  0.1050640347673735  0.9048744350896385  0.2526627675220183
  0.3949360048069366  0.6548743975631410  0.2473372545514607
  0.8949359654116051  0.5951255640877804  0.7473372331559176
  0.6050639962473312  0.8451256017341677  0.7526627459005724
  0.6050640347673735  0.9048744350896385  0.2526627675220183
  0.8949360048069366  0.6548743975631410  0.2473372545514607
  0.1280181642904452  0.1417315016749470  0.6149981730411369
  0.3719818102587951  0.3917315258403278  0.8850018457571949
  0.3719818373093347  0.3582684985387132  0.3850018327436047
  0.1280181869785508  0.1082684762252555  0.1149981467381167
  0.6280181642904452  0.1417315016749470  0.6149981730411369
  0.8719818102587951  0.3917315258403278  0.8850018457571949
  0.8719818373093347  0.3582684985387132  0.3850018327436047
  0.6280181869785508  0.1082684762252555  0.1149981467381167
  0.1280181642904452  0.6417315016749541  0.6149981730411369
  0.3719818102587951  0.8917315258403278  0.8850018457571949
  0.3719818373093347  0.8582684985387132  0.3850018327436047
  0.1280181869785508  0.6082684762252555  0.1149981467381167
  0.6280181642904452  0.6417315016749470  0.6149981730411369
  0.8719818102587951  0.8917315258403278  0.8850018457571949
  0.8719818373093347  0.8582684985387132  0.3850018327436047
  0.6280181869785508  0.6082684762252555  0.1149981467381167
  0.1889472767691771  0.1565764515378234  0.7403923332745990
  0.3110526526998001  0.4065764321147753  0.7596076774349854
  0.3110527233962728  0.3434235483038464  0.2596076659194395
  0.1889473482054314  0.0934235676015902  0.2403923229667413
  0.2771910304208163  0.0513503368924688  0.5912485443566950
  0.2228089524358481  0.3013503848073853  0.9087514639539336
  0.2228089696286943  0.4486496630857886  0.4087514541569632
  0.2771910469334031  0.1986496149938688  0.0912485363856703
  0.0387002597394073  0.4952812846940731  0.6542613633638297
  0.4612997217655987  0.2452812910564717  0.8457386114613712
  0.4612997411352922  0.0047187157682558  0.3457386363292514
  0.0387002783424109  0.2547187096934991  0.1542613895148008
  0.0550136617845780  0.1237051540022236  0.5033479538440560
  0.4449863340618663  0.3737052037429436  0.9966520343352414
  0.4449863357334110  0.3762948455813557  0.4966520432362245
  0.0550136671262464  0.1262947966981187  0.0033479704316193
  0.4756516179166184  0.2325682570324261  0.6544076414046245
  0.0243483320919751  0.4825682630297905  0.8455923541874810
  0.0243483827552566  0.2674317424280304  0.3455923584393332
  0.4756516675901068  0.0174317364254648  0.1544076468655433
  0.2073861850230827  0.2908026326208670  0.5909659908623013
  0.2926137964360720  0.0408026758335041  0.9090340411482458
  0.2926138151365336  0.2091973674601988  0.4090340080243138
  0.2073862028017217  0.4591973238413090  0.0909659586926992
  0.6889472767691771  0.1565764515378234  0.7403923332745990
  0.8110526526998001  0.4065764321147753  0.7596076774349854
  0.8110527233962657  0.3434235483038464  0.2596076659194395
  0.6889473482054242  0.0934235676015902  0.2403923229667413
  0.7771910304208163  0.0513503368924688  0.5912485443566950
  0.7228089524358410  0.3013503848073853  0.9087514639539336
  0.7228089696286943  0.4486496630857886  0.4087514541569632
  0.7771910469334031  0.1986496149938688  0.0912485363856703
  0.5387002597394073  0.4952812846940731  0.6542613633638297
  0.9612997217655987  0.2452812910564717  0.8457386114613712
  0.9612997411352850  0.0047187157682558  0.3457386363292514
  0.5387002783424109  0.2547187096934991  0.1542613895148008
  0.5550136617845709  0.1237051540022236  0.5033479538440560
  0.9449863340618663  0.3737052037429507  0.9966520343352414
  0.9449863357334110  0.3762948455813557  0.4966520432362245
  0.5550136671262464  0.1262947966981187  0.0033479704316193
  0.9756516179166184  0.2325682570324261  0.6544076414046245
  0.5243483320919751  0.4825682630297905  0.8455923541874810
  0.5243483827552495  0.2674317424280304  0.3455923584393332
  0.9756516675901068  0.0174317364254648  0.1544076468655433
  0.7073861850230827  0.2908026326208670  0.5909659908623013
  0.7926137964360720  0.0408026758335041  0.9090340411482458
  0.7926138151365265  0.2091973674601988  0.4090340080243138
  0.7073862028017217  0.4591973238413090  0.0909659586926992
  0.1889472767691771  0.6565764515378234  0.7403923332745990
  0.3110526526998001  0.9065764321147753  0.7596076774349854
  0.3110527233962657  0.8434235483038393  0.2596076659194395
  0.1889473482054314  0.5934235676015831  0.2403923229667413
  0.2771910304208163  0.5513503368924617  0.5912485443566950
  0.2228089524358410  0.8013503848073853  0.9087514639539336
  0.2228089696286943  0.9486496630857886  0.4087514541569632
  0.2771910469334102  0.6986496149938688  0.0912485363856703
  0.0387002597394073  0.9952812846940731  0.6542613633638297
  0.4612997217655987  0.7452812910564717  0.8457386114613712
  0.4612997411352922  0.5047187157682558  0.3457386363292514
  0.0387002783424109  0.7547187096934920  0.1542613895148008
  0.0550136617845709  0.6237051540022236  0.5033479538440560
  0.4449863340618663  0.8737052037429507  0.9966520343352414
  0.4449863357334110  0.8762948455813557  0.4966520432362245
  0.0550136671262464  0.6262947966981116  0.0033479704316193
  0.4756516179166184  0.7325682570324261  0.6544076414046245
  0.0243483320919751  0.9825682630297905  0.8455923541874810
  0.0243483827552566  0.7674317424280304  0.3455923584393332
  0.4756516675901068  0.5174317364254648  0.1544076468655433
  0.2073861850230827  0.7908026326208670  0.5909659908623013
  0.2926137964360720  0.5408026758335041  0.9090340411482458
  0.2926138151365336  0.7091973674601917  0.4090340080243138
  0.2073862028017288  0.9591973238413090  0.0909659586926992
  0.6889472767691771  0.6565764515378234  0.7403923332745990
  0.8110526526998001  0.9065764321147753  0.7596076774349854
  0.8110527233962728  0.8434235483038393  0.2596076659194395
  0.6889473482054242  0.5934235676015902  0.2403923229667413
  0.7771910304208163  0.5513503368924688  0.5912485443566950
  0.7228089524358410  0.8013503848073853  0.9087514639539336
  0.7228089696286943  0.9486496630857886  0.4087514541569632
  0.7771910469334031  0.6986496149938688  0.0912485363856703
  0.5387002597394073  0.9952812846940731  0.6542613633638297
  0.9612997217655916  0.7452812910564717  0.8457386114613712
  0.9612997411352850  0.5047187157682558  0.3457386363292514
  0.5387002783424109  0.7547187096934920  0.1542613895148008
  0.5550136617845709  0.6237051540022236  0.5033479538440560
  0.9449863340618663  0.8737052037429507  0.9966520343352414
  0.9449863357334110  0.8762948455813557  0.4966520432362245
  0.5550136671262464  0.6262947966981187  0.0033479704316193
  0.9756516179166184  0.7325682570324261  0.6544076414046245
  0.5243483320919751  0.9825682630297905  0.8455923541874810
  0.5243483827552495  0.7674317424280304  0.3455923584393332
  0.9756516675901068  0.5174317364254648  0.1544076468655433
  0.7073861850230827  0.7908026326208670  0.5909659908623013
  0.7926137964360720  0.5408026758335041  0.9090340411482458
  0.7926138151365265  0.7091973674601988  0.4090340080243138
  0.7073862028017217  0.9591973238413090  0.0909659586926992
 
  0.00000000E+00  0.00000000E+00  0.00000000E+00
  0.00000000E+00  0.00000000E+00  0.00000000E+00
  0.00000000E+00  0.00000000E+00  0.00000000E+00
  0.00000000E+00  0.00000000E+00  0.00000000E+00
  0.00000000E+00  0.00000000E+00  0.00000000E+00
  0.00000000E+00  0.00000000E+00  0.00000000E+00
  0.00000000E+00  0.00000000E+00  0.00000000E+00
  0.00000000E+00  0.00000000E+00  0.00000000E+00
  0.00000000E+00  0.00000000E+00  0.00000000E+00
  0.00000000E+00  0.00000000E+00  0.00000000E+00
  0.00000000E+00  0.00000000E+00  0.00000000E+00
  0.00000000E+00  0.00000000E+00  0.00000000E+00
  0.00000000E+00  0.00000000E+00  0.00000000E+00
  0.00000000E+00  0.00000000E+00  0.00000000E+00
  0.00000000E+00  0.00000000E+00  0.00000000E+00
  0.00000000E+00  0.00000000E+00  0.00000000E+00
  0.00000000E+00  0.00000000E+00  0.00000000E+00
  0.00000000E+00  0.00000000E+00  0.00000000E+00
  0.00000000E+00  0.00000000E+00  0.00000000E+00
  0.00000000E+00  0.00000000E+00  0.00000000E+00
  0.00000000E+00  0.00000000E+00  0.00000000E+00
  0.00000000E+00  0.00000000E+00  0.00000000E+00
  0.00000000E+00  0.00000000E+00  0.00000000E+00
  0.00000000E+00  0.00000000E+00  0.00000000E+00
  0.00000000E+00  0.00000000E+00  0.00000000E+00
  0.00000000E+00  0.00000000E+00  0.00000000E+00
  0.00000000E+00  0.00000000E+00  0.00000000E+00
  0.00000000E+00  0.00000000E+00  0.00000000E+00
  0.00000000E+00  0.00000000E+00  0.00000000E+00
  0.00000000E+00  0.00000000E+00  0.00000000E+00
  0.00000000E+00  0.00000000E+00  0.00000000E+00
  0.00000000E+00  0.00000000E+00  0.00000000E+00
  0.00000000E+00  0.00000000E+00  0.00000000E+00
  0.00000000E+00  0.00000000E+00  0.00000000E+00
  0.00000000E+00  0.00000000E+00  0.00000000E+00
  0.00000000E+00  0.00000000E+00  0.00000000E+00
  0.00000000E+00  0.00000000E+00  0.00000000E+00
  0.00000000E+00  0.00000000E+00  0.00000000E+00
  0.00000000E+00  0.00000000E+00  0.00000000E+00
  0.00000000E+00  0.00000000E+00  0.00000000E+00
  0.00000000E+00  0.00000000E+00  0.00000000E+00
  0.00000000E+00  0.00000000E+00  0.00000000E+00
  0.00000000E+00  0.00000000E+00  0.00000000E+00
  0.00000000E+00  0.00000000E+00  0.00000000E+00
  0.00000000E+00  0.00000000E+00  0.00000000E+00
  0.00000000E+00  0.00000000E+00  0.00000000E+00
  0.00000000E+00  0.00000000E+00  0.00000000E+00
  0.00000000E+00  0.00000000E+00  0.00000000E+00
  0.00000000E+00  0.00000000E+00  0.00000000E+00
  0.00000000E+00  0.00000000E+00  0.00000000E+00
  0.00000000E+00  0.00000000E+00  0.00000000E+00
  0.00000000E+00  0.00000000E+00  0.00000000E+00
  0.00000000E+00  0.00000000E+00  0.00000000E+00
  0.00000000E+00  0.00000000E+00  0.00000000E+00
  0.00000000E+00  0.00000000E+00  0.00000000E+00
  0.00000000E+00  0.00000000E+00  0.00000000E+00
  0.00000000E+00  0.00000000E+00  0.00000000E+00
  0.00000000E+00  0.00000000E+00  0.00000000E+00
  0.00000000E+00  0.00000000E+00  0.00000000E+00
  0.00000000E+00  0.00000000E+00  0.00000000E+00
  0.00000000E+00  0.00000000E+00  0.00000000E+00
  0.00000000E+00  0.00000000E+00  0.00000000E+00
  0.00000000E+00  0.00000000E+00  0.00000000E+00
  0.00000000E+00  0.00000000E+00  0.00000000E+00
  0.00000000E+00  0.00000000E+00  0.00000000E+00
  0.00000000E+00  0.00000000E+00  0.00000000E+00
  0.00000000E+00  0.00000000E+00  0.00000000E+00
  0.00000000E+00  0.00000000E+00  0.00000000E+00
  0.00000000E+00  0.00000000E+00  0.00000000E+00
  0.00000000E+00  0.00000000E+00  0.00000000E+00
  0.00000000E+00  0.00000000E+00  0.00000000E+00
  0.00000000E+00  0.00000000E+00  0.00000000E+00
  0.00000000E+00  0.00000000E+00  0.00000000E+00
  0.00000000E+00  0.00000000E+00  0.00000000E+00
  0.00000000E+00  0.00000000E+00  0.00000000E+00
  0.00000000E+00  0.00000000E+00  0.00000000E+00
  0.00000000E+00  0.00000000E+00  0.00000000E+00
  0.00000000E+00  0.00000000E+00  0.00000000E+00
  0.00000000E+00  0.00000000E+00  0.00000000E+00
  0.00000000E+00  0.00000000E+00  0.00000000E+00
  0.00000000E+00  0.00000000E+00  0.00000000E+00
  0.00000000E+00  0.00000000E+00  0.00000000E+00
  0.00000000E+00  0.00000000E+00  0.00000000E+00
  0.00000000E+00  0.00000000E+00  0.00000000E+00
  0.00000000E+00  0.00000000E+00  0.00000000E+00
  0.00000000E+00  0.00000000E+00  0.00000000E+00
  0.00000000E+00  0.00000000E+00  0.00000000E+00
  0.00000000E+00  0.00000000E+00  0.00000000E+00
  0.00000000E+00  0.00000000E+00  0.00000000E+00
  0.00000000E+00  0.00000000E+00  0.00000000E+00
  0.00000000E+00  0.00000000E+00  0.00000000E+00
  0.00000000E+00  0.00000000E+00  0.00000000E+00
  0.00000000E+00  0.00000000E+00  0.00000000E+00
  0.00000000E+00  0.00000000E+00  0.00000000E+00
  0.00000000E+00  0.00000000E+00  0.00000000E+00
  0.00000000E+00  0.00000000E+00  0.00000000E+00
  0.00000000E+00  0.00000000E+00  0.00000000E+00
  0.00000000E+00  0.00000000E+00  0.00000000E+00
  0.00000000E+00  0.00000000E+00  0.00000000E+00
  0.00000000E+00  0.00000000E+00  0.00000000E+00
  0.00000000E+00  0.00000000E+00  0.00000000E+00
  0.00000000E+00  0.00000000E+00  0.00000000E+00
  0.00000000E+00  0.00000000E+00  0.00000000E+00
  0.00000000E+00  0.00000000E+00  0.00000000E+00
  0.00000000E+00  0.00000000E+00  0.00000000E+00
  0.00000000E+00  0.00000000E+00  0.00000000E+00
  0.00000000E+00  0.00000000E+00  0.00000000E+00
  0.00000000E+00  0.00000000E+00  0.00000000E+00
  0.00000000E+00  0.00000000E+00  0.00000000E+00
  0.00000000E+00  0.00000000E+00  0.00000000E+00
  0.00000000E+00  0.00000000E+00  0.00000000E+00
  0.00000000E+00  0.00000000E+00  0.00000000E+00
  0.00000000E+00  0.00000000E+00  0.00000000E+00
  0.00000000E+00  0.00000000E+00  0.00000000E+00
  0.00000000E+00  0.00000000E+00  0.00000000E+00
  0.00000000E+00  0.00000000E+00  0.00000000E+00
  0.00000000E+00  0.00000000E+00  0.00000000E+00
  0.00000000E+00  0.00000000E+00  0.00000000E+00
  0.00000000E+00  0.00000000E+00  0.00000000E+00
  0.00000000E+00  0.00000000E+00  0.00000000E+00
  0.00000000E+00  0.00000000E+00  0.00000000E+00
  0.00000000E+00  0.00000000E+00  0.00000000E+00
  0.00000000E+00  0.00000000E+00  0.00000000E+00
  0.00000000E+00  0.00000000E+00  0.00000000E+00
  0.00000000E+00  0.00000000E+00  0.00000000E+00
  0.00000000E+00  0.00000000E+00  0.00000000E+00
  0.00000000E+00  0.00000000E+00  0.00000000E+00
  0.00000000E+00  0.00000000E+00  0.00000000E+00
