supercell of natacl6_p21c.cif           
   1.00000000000000     
    12.8086700406632197    0.0000004227264436   -0.0315492974735766
     0.0000004651105324   13.6960863482870359   -0.0000019106395650
    -0.3327533513840475   -0.0000026420200669   18.8435734257652570
   Na   W    Ta   Cl
    16     1    15    96
Direct
  0.3934778543361830  0.0949906814819244  0.7456409309982632
  0.1025538448015340  0.3450472366182495  0.7512744471135164
  0.1050653850890271  0.4048418916468677  0.2528032027705862
  0.3949399531125621  0.1548293634109186  0.2472501030669179
  0.8947115376520145  0.0952872827689646  0.7465192108407166
  0.6051040769166534  0.3448859531582471  0.7526246387994888
  0.6050681483746843  0.4048818383123560  0.2527603444739839
  0.8949429559032964  0.1548842504013592  0.2471611501739090
  0.3948602110295951  0.5949388771629742  0.7471552800644190
  0.1055882552033154  0.8444860458818013  0.7530887892324074
  0.1052851853186496  0.9048507316371399  0.2528140920429323
  0.3949286659179876  0.6549591538338291  0.2472602236356067
  0.8949603617567234  0.5950920228078402  0.7471219760433385
  0.6050391898385215  0.8452927601857922  0.7526394488820358
  0.6049284959327110  0.9049019365397371  0.2528088712594183
  0.8949837549532944  0.6548490809291820  0.2471773086949298
  0.1274196992439514  0.1409469286431531  0.6145475029164800
  0.3716856095957439  0.3914976430506627  0.8847837697307028
  0.3719634770132529  0.3582108572192126  0.3849882750764237
  0.1281008318794647  0.1082213550335425  0.1149760753079576
  0.6279250187884173  0.1416627848407401  0.6150248810506866
  0.8719643245850932  0.3917257684183681  0.8848587463669304
  0.8719284524285555  0.3581266292078880  0.3850871125639941
  0.6280826139809861  0.1082137018928648  0.1149796014841939
  0.1282008567331587  0.6417463120332414  0.6149406085156670
  0.3719403971867123  0.8919614719900721  0.8849126171433639
  0.3719241922939034  0.8582204600943939  0.3850342497819668
  0.1281062455411686  0.6082290167289344  0.1149896048034407
  0.6280792372375998  0.6417801413461959  0.6150179932482160
  0.8719690817549122  0.8918122508989228  0.8848846548638818
  0.8718971052490829  0.8582441558151856  0.3850455854876387
  0.6280743712422350  0.6082436515358083  0.1149823538210057
  0.1881679883063683  0.1570921080218497  0.7380308221475502
  0.3102169186691768  0.4061771498806763  0.7594128782516449
  0.3109970670056299  0.3433677702858304  0.2596214821179501
  0.1889996294942051  0.0934033040368476  0.2403991305626008
  0.2759090785975289  0.0493314048079796  0.5933220581441248
  0.2225515066524437  0.3011166588251797  0.9085615365317707
  0.2227034513448416  0.4485391695512888  0.4087532535046137
  0.2772751248414238  0.1986004055918542  0.0912506611964545
  0.0385428749955423  0.4952777781091342  0.6541265605422240
  0.4609598388095790  0.2450766848755421  0.8455564173880674
  0.4612747988630659  0.0046845742539503  0.3457262905660983
  0.0387925622195624  0.2547204052701417  0.1542643899195468
  0.0590945374241372  0.1234759686129649  0.5031267797301595
  0.4447102621478294  0.3736296169246600  0.9964849360941912
  0.4448594372506705  0.3762822848000837  0.4966670921536860
  0.0550385241332805  0.1262997898899414  0.0033516755736258
  0.4758535027037212  0.2328906052571540  0.6543790100026712
  0.0243609007206445  0.4824746204740009  0.8455166949493744
  0.0243755012015114  0.2671941795318560  0.3456973270214334
  0.4757380928396628  0.0174041152193709  0.1543933112488958
  0.2061125205058545  0.2872918770770241  0.5879458662929054
  0.2923729097364429  0.0410110641872876  0.9088047840126805
  0.2926636980960851  0.2090702421417987  0.4090584332925999
  0.2074393688071368  0.4591346294848506  0.0909528102588766
  0.6890765825913547  0.1564849906661152  0.7403646307948932
  0.8110697687962869  0.4065753572832307  0.7594543230092654
  0.8111092623057061  0.3433180752931193  0.2596891000776509
  0.6890195406375881  0.0933633988919453  0.2403965250221276
  0.7769081062786256  0.0510212473677498  0.5911725009261630
  0.7227705698211864  0.3013829911817822  0.9086975503118211
  0.7228397240643005  0.4485336776578563  0.4088797119883907
  0.7772953370767368  0.1986021319196780  0.0912582197007126
  0.5387987619278647  0.4953032952211061  0.6542454492204968
  0.9610591475424570  0.2452407850745857  0.8453248745055220
  0.9612741138694574  0.0048581716585332  0.3458926156736624
  0.5388003899808211  0.2547102639779908  0.1542543734752826
  0.5548604229449694  0.1237097504688336  0.5033752914944998
  0.9450256111414816  0.3734845732001233  0.9964887559318925
  0.9452198353039591  0.3759472891989404  0.4967130394642680
  0.5550904769638194  0.1263022909292673  0.0033416356452776
  0.9757696932360318  0.2300100826285458  0.6531626353246978
  0.5240353420209019  0.4824073160549460  0.8453780455641819
  0.5242813128642894  0.2673942080701011  0.3455890511959865
  0.9757473909432477  0.0173736725330045  0.1544361608135816
  0.7075677446216133  0.2906206109701870  0.5909511170202180
  0.7926615964968562  0.0408450350030591  0.9089839293780315
  0.7925898632278461  0.2090596915389398  0.4091001614498850
  0.7074459054900188  0.4591341196462650  0.0909622091838855
  0.1890237593933932  0.6563670109117652  0.7403702840686890
  0.3107908232514731  0.9066346059136592  0.7595600802982858
  0.3111178861902744  0.8433201878573158  0.2595582557215863
  0.1889879434781818  0.5933715419297201  0.2403972730430652
  0.2771140260608718  0.5507686544639654  0.5912772827879635
  0.2227593219798791  0.8014996038871658  0.9087116265916748
  0.2227243422681369  0.9485185039638395  0.4086124003644400
  0.2772757761279365  0.6985950595169825  0.0912476281716437
  0.0406500357996578  0.9959011442759760  0.6538987858615144
  0.4611048844573133  0.7454018750490121  0.8456635850207519
  0.4612117808701299  0.5046773968343174  0.3457540228344058
  0.0387896794105629  0.7547096009918590  0.1542678569883549
  0.0549328965659086  0.6236523864611740  0.5033476964343961
  0.4447904960261724  0.8738708586119799  0.9966259988414521
  0.4448090049747222  0.8764042472425473  0.4966710104952696
  0.0550547428582817  0.6262918809868552  0.0033542852385580
  0.4757152020673487  0.7325808106057252  0.6543916500276339
  0.0243329736424016  0.9826584003448673  0.8452183644209370
  0.0242361868580616  0.7674381704064999  0.3456680875517364
  0.4757322079687114  0.5174197587931317  0.1544242051356477
  0.2077435765079017  0.7904440131113759  0.5908562411528990
  0.2924998471824338  0.5406672658566336  0.9088823577248206
  0.2926653178912275  0.7090790105765308  0.4090238502396346
  0.2074312400633076  0.9591597484275738  0.0909548909978284
  0.6890100852837122  0.6566625676056859  0.7403867286934727
  0.8111740309258906  0.9065571413019171  0.7594931267202583
  0.8110375792713285  0.8434579916747325  0.2596962114454939
  0.6890437685271280  0.5933823963159384  0.2404009069010797
  0.7772757054323307  0.5514082630988284  0.5912642934282744
  0.7227849311795467  0.8014856525144864  0.9086652382539739
  0.7227235503795555  0.9485920613908831  0.4087944355625268
  0.7773045413867550  0.6985958938560870  0.0912525615754447
  0.5387102316067640  0.9952472734187765  0.6543092437389646
  0.9612400845272333  0.7452343179876308  0.8457797496579076
  0.9612364213229228  0.5045731670619062  0.3458094154159852
  0.5388341424231626  0.7547150780798830  0.1542193357118578
  0.5550804553158670  0.6237095504703660  0.5033499247474182
  0.9450884165123838  0.8738153039752774  0.9965231625289093
  0.9450715729091144  0.8766587189318997  0.4967160399534762
  0.5550749938173780  0.6262752877682303  0.0033258252511388
  0.9759034046838693  0.7327429763467350  0.6544483528732812
  0.5240558377194304  0.9827787167637752  0.8454295450709779
  0.5243209356398495  0.7673744530503015  0.3455877757423877
  0.9757293725794653  0.5173693606623146  0.1544037049544258
  0.7074217341381512  0.7908490740780323  0.5909611223145390
  0.7925736841648359  0.5407420067716586  0.9089557364906682
  0.7926523219952273  0.7092028716236527  0.4091980952497352
  0.7074513424582847  0.9591443007036773  0.0909600636349097
 
  0.00000000E+00  0.00000000E+00  0.00000000E+00
  0.00000000E+00  0.00000000E+00  0.00000000E+00
  0.00000000E+00  0.00000000E+00  0.00000000E+00
  0.00000000E+00  0.00000000E+00  0.00000000E+00
  0.00000000E+00  0.00000000E+00  0.00000000E+00
  0.00000000E+00  0.00000000E+00  0.00000000E+00
  0.00000000E+00  0.00000000E+00  0.00000000E+00
  0.00000000E+00  0.00000000E+00  0.00000000E+00
  0.00000000E+00  0.00000000E+00  0.00000000E+00
  0.00000000E+00  0.00000000E+00  0.00000000E+00
  0.00000000E+00  0.00000000E+00  0.00000000E+00
  0.00000000E+00  0.00000000E+00  0.00000000E+00
  0.00000000E+00  0.00000000E+00  0.00000000E+00
  0.00000000E+00  0.00000000E+00  0.00000000E+00
  0.00000000E+00  0.00000000E+00  0.00000000E+00
  0.00000000E+00  0.00000000E+00  0.00000000E+00
  0.00000000E+00  0.00000000E+00  0.00000000E+00
  0.00000000E+00  0.00000000E+00  0.00000000E+00
  0.00000000E+00  0.00000000E+00  0.00000000E+00
  0.00000000E+00  0.00000000E+00  0.00000000E+00
  0.00000000E+00  0.00000000E+00  0.00000000E+00
  0.00000000E+00  0.00000000E+00  0.00000000E+00
  0.00000000E+00  0.00000000E+00  0.00000000E+00
  0.00000000E+00  0.00000000E+00  0.00000000E+00
  0.00000000E+00  0.00000000E+00  0.00000000E+00
  0.00000000E+00  0.00000000E+00  0.00000000E+00
  0.00000000E+00  0.00000000E+00  0.00000000E+00
  0.00000000E+00  0.00000000E+00  0.00000000E+00
  0.00000000E+00  0.00000000E+00  0.00000000E+00
  0.00000000E+00  0.00000000E+00  0.00000000E+00
  0.00000000E+00  0.00000000E+00  0.00000000E+00
  0.00000000E+00  0.00000000E+00  0.00000000E+00
  0.00000000E+00  0.00000000E+00  0.00000000E+00
  0.00000000E+00  0.00000000E+00  0.00000000E+00
  0.00000000E+00  0.00000000E+00  0.00000000E+00
  0.00000000E+00  0.00000000E+00  0.00000000E+00
  0.00000000E+00  0.00000000E+00  0.00000000E+00
  0.00000000E+00  0.00000000E+00  0.00000000E+00
  0.00000000E+00  0.00000000E+00  0.00000000E+00
  0.00000000E+00  0.00000000E+00  0.00000000E+00
  0.00000000E+00  0.00000000E+00  0.00000000E+00
  0.00000000E+00  0.00000000E+00  0.00000000E+00
  0.00000000E+00  0.00000000E+00  0.00000000E+00
  0.00000000E+00  0.00000000E+00  0.00000000E+00
  0.00000000E+00  0.00000000E+00  0.00000000E+00
  0.00000000E+00  0.00000000E+00  0.00000000E+00
  0.00000000E+00  0.00000000E+00  0.00000000E+00
  0.00000000E+00  0.00000000E+00  0.00000000E+00
  0.00000000E+00  0.00000000E+00  0.00000000E+00
  0.00000000E+00  0.00000000E+00  0.00000000E+00
  0.00000000E+00  0.00000000E+00  0.00000000E+00
  0.00000000E+00  0.00000000E+00  0.00000000E+00
  0.00000000E+00  0.00000000E+00  0.00000000E+00
  0.00000000E+00  0.00000000E+00  0.00000000E+00
  0.00000000E+00  0.00000000E+00  0.00000000E+00
  0.00000000E+00  0.00000000E+00  0.00000000E+00
  0.00000000E+00  0.00000000E+00  0.00000000E+00
  0.00000000E+00  0.00000000E+00  0.00000000E+00
  0.00000000E+00  0.00000000E+00  0.00000000E+00
  0.00000000E+00  0.00000000E+00  0.00000000E+00
  0.00000000E+00  0.00000000E+00  0.00000000E+00
  0.00000000E+00  0.00000000E+00  0.00000000E+00
  0.00000000E+00  0.00000000E+00  0.00000000E+00
  0.00000000E+00  0.00000000E+00  0.00000000E+00
  0.00000000E+00  0.00000000E+00  0.00000000E+00
  0.00000000E+00  0.00000000E+00  0.00000000E+00
  0.00000000E+00  0.00000000E+00  0.00000000E+00
  0.00000000E+00  0.00000000E+00  0.00000000E+00
  0.00000000E+00  0.00000000E+00  0.00000000E+00
  0.00000000E+00  0.00000000E+00  0.00000000E+00
  0.00000000E+00  0.00000000E+00  0.00000000E+00
  0.00000000E+00  0.00000000E+00  0.00000000E+00
  0.00000000E+00  0.00000000E+00  0.00000000E+00
  0.00000000E+00  0.00000000E+00  0.00000000E+00
  0.00000000E+00  0.00000000E+00  0.00000000E+00
  0.00000000E+00  0.00000000E+00  0.00000000E+00
  0.00000000E+00  0.00000000E+00  0.00000000E+00
  0.00000000E+00  0.00000000E+00  0.00000000E+00
  0.00000000E+00  0.00000000E+00  0.00000000E+00
  0.00000000E+00  0.00000000E+00  0.00000000E+00
  0.00000000E+00  0.00000000E+00  0.00000000E+00
  0.00000000E+00  0.00000000E+00  0.00000000E+00
  0.00000000E+00  0.00000000E+00  0.00000000E+00
  0.00000000E+00  0.00000000E+00  0.00000000E+00
  0.00000000E+00  0.00000000E+00  0.00000000E+00
  0.00000000E+00  0.00000000E+00  0.00000000E+00
  0.00000000E+00  0.00000000E+00  0.00000000E+00
  0.00000000E+00  0.00000000E+00  0.00000000E+00
  0.00000000E+00  0.00000000E+00  0.00000000E+00
  0.00000000E+00  0.00000000E+00  0.00000000E+00
  0.00000000E+00  0.00000000E+00  0.00000000E+00
  0.00000000E+00  0.00000000E+00  0.00000000E+00
  0.00000000E+00  0.00000000E+00  0.00000000E+00
  0.00000000E+00  0.00000000E+00  0.00000000E+00
  0.00000000E+00  0.00000000E+00  0.00000000E+00
  0.00000000E+00  0.00000000E+00  0.00000000E+00
  0.00000000E+00  0.00000000E+00  0.00000000E+00
  0.00000000E+00  0.00000000E+00  0.00000000E+00
  0.00000000E+00  0.00000000E+00  0.00000000E+00
  0.00000000E+00  0.00000000E+00  0.00000000E+00
  0.00000000E+00  0.00000000E+00  0.00000000E+00
  0.00000000E+00  0.00000000E+00  0.00000000E+00
  0.00000000E+00  0.00000000E+00  0.00000000E+00
  0.00000000E+00  0.00000000E+00  0.00000000E+00
  0.00000000E+00  0.00000000E+00  0.00000000E+00
  0.00000000E+00  0.00000000E+00  0.00000000E+00
  0.00000000E+00  0.00000000E+00  0.00000000E+00
  0.00000000E+00  0.00000000E+00  0.00000000E+00
  0.00000000E+00  0.00000000E+00  0.00000000E+00
  0.00000000E+00  0.00000000E+00  0.00000000E+00
  0.00000000E+00  0.00000000E+00  0.00000000E+00
  0.00000000E+00  0.00000000E+00  0.00000000E+00
  0.00000000E+00  0.00000000E+00  0.00000000E+00
  0.00000000E+00  0.00000000E+00  0.00000000E+00
  0.00000000E+00  0.00000000E+00  0.00000000E+00
  0.00000000E+00  0.00000000E+00  0.00000000E+00
  0.00000000E+00  0.00000000E+00  0.00000000E+00
  0.00000000E+00  0.00000000E+00  0.00000000E+00
  0.00000000E+00  0.00000000E+00  0.00000000E+00
  0.00000000E+00  0.00000000E+00  0.00000000E+00
  0.00000000E+00  0.00000000E+00  0.00000000E+00
  0.00000000E+00  0.00000000E+00  0.00000000E+00
  0.00000000E+00  0.00000000E+00  0.00000000E+00
  0.00000000E+00  0.00000000E+00  0.00000000E+00
  0.00000000E+00  0.00000000E+00  0.00000000E+00
  0.00000000E+00  0.00000000E+00  0.00000000E+00
  0.00000000E+00  0.00000000E+00  0.00000000E+00
  0.00000000E+00  0.00000000E+00  0.00000000E+00
