supercell of natacl6_p21c.cif           
   1.00000000000000     
    12.8086700406632197    0.0000004227264436   -0.0315492974735766
     0.0000004651105324   13.6960863482870359   -0.0000019106395650
    -0.3327533513840475   -0.0000026420200669   18.8435734257652570
   Na   Ta   Cl
    17    16    96
Direct
  0.3887240499734261  0.0900640123091421  0.7543446339605708
  0.1036369553205958  0.3452417339483134  0.7468703601479163
  0.1049338121469816  0.4119505942257646  0.2578507100934715
  0.4001096798933119  0.1588462333577851  0.2428325295088811
  0.8949100712673612  0.0919698246981611  0.7438479513013831
  0.6076344638378686  0.3424854053086150  0.7563725241539316
  0.6024141742219911  0.4058792942712657  0.2520428284465055
  0.8847625857195567  0.1592009506065466  0.2417519466471063
  0.4001201037269766  0.5958675575958594  0.7521729698500152
  0.1158383131787701  0.8440498759307644  0.7547678642488549
  0.1073476688957768  0.9070519824715930  0.2570323515428683
  0.3968438243795021  0.6547828912929674  0.2463585931180532
  0.8993824316250354  0.5963605050385823  0.7433731992284649
  0.6028764352602138  0.8409127871867526  0.7527206036609755
  0.6011309642947538  0.9088698819338035  0.2415439442473613
  0.8908126778131447  0.6562307463164530  0.2468884850125832
  0.3900447981217852  0.0577026257510909  0.0205618746686298
  0.1255716693358764  0.1401259906412093  0.6110300688688568
  0.3701521133121375  0.3902734335790115  0.8859751318122093
  0.3696456248281663  0.3574673582728423  0.3844438949746305
  0.1253738013108219  0.1127529945275967  0.1158205483080650
  0.6247367696091075  0.1397573106688554  0.6158497916327761
  0.8747951781006336  0.3936882208854371  0.8819790415028095
  0.8695228335256502  0.3598378718607620  0.3855627264255261
  0.6389496664427483  0.1132617924543382  0.1216141167860201
  0.1320016177500349  0.6407209364502435  0.6114026472204728
  0.3752156196018674  0.8832127285973215  0.8741623215919461
  0.3734012483246474  0.8583879852616860  0.3816493101893528
  0.1269187431427881  0.6119956328952441  0.1140724867166156
  0.6297302200379917  0.6373801607318015  0.6143829846469373
  0.8740176371864337  0.8923464631730766  0.8832033110225552
  0.8679706946343231  0.8588750208750469  0.3846255059777661
  0.6269960620842241  0.6084498904933824  0.1131529422376332
  0.1862787792572220  0.1570775385104355  0.7355944330323254
  0.3105386412038840  0.4072301795379403  0.7605560192699627
  0.3089518413559631  0.3441732052954123  0.2590766697922433
  0.1935138174024829  0.0949722937722584  0.2389632712078580
  0.2758201986743600  0.0529083580143563  0.5851901157159745
  0.2210774409637821  0.2991301211263746  0.9084245939707429
  0.2202508060101778  0.4489419809426636  0.4073336343329359
  0.2770309793175727  0.2049428789518331  0.0900681053797285
  0.0398372528876010  0.4950272239216815  0.6502199527817822
  0.4598770079645220  0.2445626618073149  0.8472837812828047
  0.4585507394447959  0.0065045830965502  0.3444688812503003
  0.0445508844806497  0.2602778159611816  0.1560597153000032
  0.0503736442951492  0.1218893066455422  0.4998058769342251
  0.4409008589746293  0.3720461558141608  0.9981511861192089
  0.4401595929536910  0.3750686896878364  0.4969463869856625
  0.0515148346720267  0.1317407796620742  0.0047519710753150
  0.4728285648158277  0.2280390216713357  0.6579028304175552
  0.0279810180078144  0.4833761596158297  0.8417501135810639
  0.0204253906201046  0.2684020216778933  0.3442256551442355
  0.4733783624077930  0.0214826714305829  0.1524898888723314
  0.2024096809265146  0.2908069740773342  0.5868914702139776
  0.2896486916135217  0.0408491318786375  0.8959399215727331
  0.2888909584066894  0.2088665588304792  0.4077871087971801
  0.2066078714137447  0.4629554325782195  0.0901951287746101
  0.6888815851015124  0.1540058710542880  0.7403810075464321
  0.8133564410421599  0.4081722138118948  0.7565020755205651
  0.8083981163191396  0.3484225212302903  0.2610025606742710
  0.6869241954530523  0.0957348060419747  0.2500355200102504
  0.7751379646672873  0.0515510179063980  0.5898008313028527
  0.7251544750242900  0.3047370573902981  0.9055874895585347
  0.7210065767185228  0.4505198769416836  0.4107137980778504
  0.7926294885709524  0.2061007977966796  0.1008687414808165
  0.5415192087452496  0.4915461210739593  0.6560684002181958
  0.9630027425942842  0.2464405529801894  0.8426914057888837
  0.9564979785589927  0.0053013677367204  0.3440449730425570
  0.5409732658234603  0.2599610901849729  0.1562139781717562
  0.5508334947422497  0.1250284204834813  0.5037316714145277
  0.9470507654081288  0.3761601431416537  0.9939012027830287
  0.9452057706756278  0.3774029527224343  0.4964494193186511
  0.5772164217791769  0.1388313226895903  0.0016935422877609
  0.9719732596194675  0.2297587610812286  0.6507390951829635
  0.5245529023609734  0.4795580016248806  0.8482735509688837
  0.5220351301388675  0.2675482180483542  0.3462965163240099
  0.9794645614928115  0.0183677203582846  0.1554591184658776
  0.7027056251127988  0.2899816331115161  0.5919729258439617
  0.7955298329056788  0.0409146211867153  0.9080350947688913
  0.7900261733258986  0.2114807318283951  0.4105631446542475
  0.7078506053878826  0.4600575511844269  0.0902175586968355
  0.1931686944237043  0.6534356924862408  0.7358846295200294
  0.3181417011531593  0.9004335652824338  0.7467062299693481
  0.3117744413531867  0.8439247837905128  0.2565347884669436
  0.1901587398727216  0.5971672595999920  0.2392765586146979
  0.2790250299476966  0.5479918172233766  0.5870779442568335
  0.2201663076675686  0.7974925926064174  0.8968590043858384
  0.2213310092168541  0.9450491603279261  0.4061773729813893
  0.2744937727382819  0.7026689973640217  0.0889180085541952
  0.0400305091974289  0.9924703038311335  0.6508255755285077
  0.4732379169705396  0.7355452391555346  0.8436286832282676
  0.4596586254268473  0.5041169355112487  0.3458962444211622
  0.0379818388015991  0.7579893908600894  0.1543180850103809
  0.0571242917655397  0.6233981087592397  0.5000095479616462
  0.4442205484482002  0.8695535338913345  0.9927422682210008
  0.4454290885886536  0.8748373168097388  0.4939740987054293
  0.0518778453096189  0.6282316580219529  0.0029568765037880
  0.4775420287935717  0.7275505181013386  0.6522747306557761
  0.0245009993982848  0.9838462339764433  0.8410959755826966
  0.0203707469966901  0.7675449289675385  0.3440041353822139
  0.4744368946290223  0.5177797091858309  0.1528155728867446
  0.2125377345439716  0.7884235654994924  0.5859245996456508
  0.2914971641278328  0.5395006074262341  0.9099218012100465
  0.2961326620126030  0.7077215002419806  0.4049032482214372
  0.2097429211409150  0.9658239929442800  0.0867922784806723
  0.6932905163515741  0.6546507806873478  0.7386241580826010
  0.8086390984286922  0.9053066157929308  0.7586159506121817
  0.8052477261492186  0.8436196743493980  0.2603384332590011
  0.6860762990939193  0.5941394602408394  0.2395546468922944
  0.7787464409873266  0.5470275160332889  0.5897962732761570
  0.7272691199310444  0.8014411593060728  0.9105923348371050
  0.7204488117911225  0.9484655236942032  0.4117276657365494
  0.7760555126717890  0.7002357899330605  0.0913998911950884
  0.5388846826040208  0.9918186826330029  0.6521936827423929
  0.9622039225449157  0.7456893439908399  0.8422800853106196
  0.9589787868719384  0.5074705406387423  0.3470330791294174
  0.5354820036602419  0.7539841922422994  0.1509502866818266
  0.5556614988836586  0.6174305043260944  0.5027887870227801
  0.9525816912659550  0.8754662036744207  0.9935233412050053
  0.9454405162333757  0.8758331597289484  0.4952451317187325
  0.5560184122318432  0.6244817665367250  0.0011990459219078
  0.9812725592604963  0.7333772363657260  0.6515194545726288
  0.5285262551130288  0.9807086740012707  0.8423662285250018
  0.5268624372092816  0.7707714778783696  0.3413696792157452
  0.9757850243719659  0.5201855468937211  0.1552736879820031
  0.7087758375055557  0.7862459173374319  0.5883987598250329
  0.7970556275309519  0.5437458225360814  0.9056568168692252
  0.7902578095684305  0.7093397387574356  0.4093053596626817
  0.7126391615885979  0.9604622919299288  0.0964197033591461
 
  0.00000000E+00  0.00000000E+00  0.00000000E+00
  0.00000000E+00  0.00000000E+00  0.00000000E+00
  0.00000000E+00  0.00000000E+00  0.00000000E+00
  0.00000000E+00  0.00000000E+00  0.00000000E+00
  0.00000000E+00  0.00000000E+00  0.00000000E+00
  0.00000000E+00  0.00000000E+00  0.00000000E+00
  0.00000000E+00  0.00000000E+00  0.00000000E+00
  0.00000000E+00  0.00000000E+00  0.00000000E+00
  0.00000000E+00  0.00000000E+00  0.00000000E+00
  0.00000000E+00  0.00000000E+00  0.00000000E+00
  0.00000000E+00  0.00000000E+00  0.00000000E+00
  0.00000000E+00  0.00000000E+00  0.00000000E+00
  0.00000000E+00  0.00000000E+00  0.00000000E+00
  0.00000000E+00  0.00000000E+00  0.00000000E+00
  0.00000000E+00  0.00000000E+00  0.00000000E+00
  0.00000000E+00  0.00000000E+00  0.00000000E+00
  0.00000000E+00  0.00000000E+00  0.00000000E+00
  0.00000000E+00  0.00000000E+00  0.00000000E+00
  0.00000000E+00  0.00000000E+00  0.00000000E+00
  0.00000000E+00  0.00000000E+00  0.00000000E+00
  0.00000000E+00  0.00000000E+00  0.00000000E+00
  0.00000000E+00  0.00000000E+00  0.00000000E+00
  0.00000000E+00  0.00000000E+00  0.00000000E+00
  0.00000000E+00  0.00000000E+00  0.00000000E+00
  0.00000000E+00  0.00000000E+00  0.00000000E+00
  0.00000000E+00  0.00000000E+00  0.00000000E+00
  0.00000000E+00  0.00000000E+00  0.00000000E+00
  0.00000000E+00  0.00000000E+00  0.00000000E+00
  0.00000000E+00  0.00000000E+00  0.00000000E+00
  0.00000000E+00  0.00000000E+00  0.00000000E+00
  0.00000000E+00  0.00000000E+00  0.00000000E+00
  0.00000000E+00  0.00000000E+00  0.00000000E+00
  0.00000000E+00  0.00000000E+00  0.00000000E+00
  0.00000000E+00  0.00000000E+00  0.00000000E+00
  0.00000000E+00  0.00000000E+00  0.00000000E+00
  0.00000000E+00  0.00000000E+00  0.00000000E+00
  0.00000000E+00  0.00000000E+00  0.00000000E+00
  0.00000000E+00  0.00000000E+00  0.00000000E+00
  0.00000000E+00  0.00000000E+00  0.00000000E+00
  0.00000000E+00  0.00000000E+00  0.00000000E+00
  0.00000000E+00  0.00000000E+00  0.00000000E+00
  0.00000000E+00  0.00000000E+00  0.00000000E+00
  0.00000000E+00  0.00000000E+00  0.00000000E+00
  0.00000000E+00  0.00000000E+00  0.00000000E+00
  0.00000000E+00  0.00000000E+00  0.00000000E+00
  0.00000000E+00  0.00000000E+00  0.00000000E+00
  0.00000000E+00  0.00000000E+00  0.00000000E+00
  0.00000000E+00  0.00000000E+00  0.00000000E+00
  0.00000000E+00  0.00000000E+00  0.00000000E+00
  0.00000000E+00  0.00000000E+00  0.00000000E+00
  0.00000000E+00  0.00000000E+00  0.00000000E+00
  0.00000000E+00  0.00000000E+00  0.00000000E+00
  0.00000000E+00  0.00000000E+00  0.00000000E+00
  0.00000000E+00  0.00000000E+00  0.00000000E+00
  0.00000000E+00  0.00000000E+00  0.00000000E+00
  0.00000000E+00  0.00000000E+00  0.00000000E+00
  0.00000000E+00  0.00000000E+00  0.00000000E+00
  0.00000000E+00  0.00000000E+00  0.00000000E+00
  0.00000000E+00  0.00000000E+00  0.00000000E+00
  0.00000000E+00  0.00000000E+00  0.00000000E+00
  0.00000000E+00  0.00000000E+00  0.00000000E+00
  0.00000000E+00  0.00000000E+00  0.00000000E+00
  0.00000000E+00  0.00000000E+00  0.00000000E+00
  0.00000000E+00  0.00000000E+00  0.00000000E+00
  0.00000000E+00  0.00000000E+00  0.00000000E+00
  0.00000000E+00  0.00000000E+00  0.00000000E+00
  0.00000000E+00  0.00000000E+00  0.00000000E+00
  0.00000000E+00  0.00000000E+00  0.00000000E+00
  0.00000000E+00  0.00000000E+00  0.00000000E+00
  0.00000000E+00  0.00000000E+00  0.00000000E+00
  0.00000000E+00  0.00000000E+00  0.00000000E+00
  0.00000000E+00  0.00000000E+00  0.00000000E+00
  0.00000000E+00  0.00000000E+00  0.00000000E+00
  0.00000000E+00  0.00000000E+00  0.00000000E+00
  0.00000000E+00  0.00000000E+00  0.00000000E+00
  0.00000000E+00  0.00000000E+00  0.00000000E+00
  0.00000000E+00  0.00000000E+00  0.00000000E+00
  0.00000000E+00  0.00000000E+00  0.00000000E+00
  0.00000000E+00  0.00000000E+00  0.00000000E+00
  0.00000000E+00  0.00000000E+00  0.00000000E+00
  0.00000000E+00  0.00000000E+00  0.00000000E+00
  0.00000000E+00  0.00000000E+00  0.00000000E+00
  0.00000000E+00  0.00000000E+00  0.00000000E+00
  0.00000000E+00  0.00000000E+00  0.00000000E+00
  0.00000000E+00  0.00000000E+00  0.00000000E+00
  0.00000000E+00  0.00000000E+00  0.00000000E+00
  0.00000000E+00  0.00000000E+00  0.00000000E+00
  0.00000000E+00  0.00000000E+00  0.00000000E+00
  0.00000000E+00  0.00000000E+00  0.00000000E+00
  0.00000000E+00  0.00000000E+00  0.00000000E+00
  0.00000000E+00  0.00000000E+00  0.00000000E+00
  0.00000000E+00  0.00000000E+00  0.00000000E+00
  0.00000000E+00  0.00000000E+00  0.00000000E+00
  0.00000000E+00  0.00000000E+00  0.00000000E+00
  0.00000000E+00  0.00000000E+00  0.00000000E+00
  0.00000000E+00  0.00000000E+00  0.00000000E+00
  0.00000000E+00  0.00000000E+00  0.00000000E+00
  0.00000000E+00  0.00000000E+00  0.00000000E+00
  0.00000000E+00  0.00000000E+00  0.00000000E+00
  0.00000000E+00  0.00000000E+00  0.00000000E+00
  0.00000000E+00  0.00000000E+00  0.00000000E+00
  0.00000000E+00  0.00000000E+00  0.00000000E+00
  0.00000000E+00  0.00000000E+00  0.00000000E+00
  0.00000000E+00  0.00000000E+00  0.00000000E+00
  0.00000000E+00  0.00000000E+00  0.00000000E+00
  0.00000000E+00  0.00000000E+00  0.00000000E+00
  0.00000000E+00  0.00000000E+00  0.00000000E+00
  0.00000000E+00  0.00000000E+00  0.00000000E+00
  0.00000000E+00  0.00000000E+00  0.00000000E+00
  0.00000000E+00  0.00000000E+00  0.00000000E+00
  0.00000000E+00  0.00000000E+00  0.00000000E+00
  0.00000000E+00  0.00000000E+00  0.00000000E+00
  0.00000000E+00  0.00000000E+00  0.00000000E+00
  0.00000000E+00  0.00000000E+00  0.00000000E+00
  0.00000000E+00  0.00000000E+00  0.00000000E+00
  0.00000000E+00  0.00000000E+00  0.00000000E+00
  0.00000000E+00  0.00000000E+00  0.00000000E+00
  0.00000000E+00  0.00000000E+00  0.00000000E+00
  0.00000000E+00  0.00000000E+00  0.00000000E+00
  0.00000000E+00  0.00000000E+00  0.00000000E+00
  0.00000000E+00  0.00000000E+00  0.00000000E+00
  0.00000000E+00  0.00000000E+00  0.00000000E+00
  0.00000000E+00  0.00000000E+00  0.00000000E+00
  0.00000000E+00  0.00000000E+00  0.00000000E+00
  0.00000000E+00  0.00000000E+00  0.00000000E+00
  0.00000000E+00  0.00000000E+00  0.00000000E+00
  0.00000000E+00  0.00000000E+00  0.00000000E+00
  0.00000000E+00  0.00000000E+00  0.00000000E+00
  0.00000000E+00  0.00000000E+00  0.00000000E+00
