supercell of natacl6_p21c.cif           
   1.00000000000000     
    12.8086700406632197    0.0000004227264436   -0.0315492974735766
     0.0000004651105324   13.6960863482870359   -0.0000019106395650
    -0.3327533513840475   -0.0000026420200669   18.8435734257652570
   Na   Ta   Cl
    15    16    95
Direct
  0.4022268003067353  0.0988051821547913  0.7511276928033084
  0.1051190261239014  0.4054207572241779  0.2519944195359827
  0.3953116333157709  0.1547833036080846  0.2465371157923002
  0.8791595031515129  0.1045336116192814  0.7641474830694648
  0.6072298753864729  0.3486466955277834  0.7606905675283500
  0.6042018733873178  0.4053277288508070  0.2519578747744688
  0.8946289591442778  0.1546990323749498  0.2464373672463509
  0.3982067092464874  0.5879677764048381  0.7459318352470632
  0.1155538389777604  0.8265317068019868  0.7684614865932033
  0.1050420448051028  0.9050446622043467  0.2520615006426397
  0.3948759820526746  0.6552327892185943  0.2459477269857189
  0.8957532792959881  0.5874326667151948  0.7463609386039849
  0.6040312546729467  0.8445847811653948  0.7499942329324156
  0.6036741657362938  0.9050613754358068  0.2522213650066547
  0.8943832151637992  0.6554924428409805  0.2452498802169814
  0.1122645277665413  0.1178214018764194  0.6228040482541459
  0.3657862851251181  0.3919903630941164  0.8838043255375823
  0.3716063037866277  0.3590360861789605  0.3846171580611610
  0.1286251603390198  0.1083647785014108  0.1149411427443496
  0.6246951016780216  0.1436402666763144  0.6145662247797148
  0.8789331564349467  0.3911393900752884  0.8822426574270708
  0.8711810412310470  0.3592702439098971  0.3843708044285492
  0.6284823951628908  0.1086615003204159  0.1146090807334375
  0.1290912360865022  0.6377281686991623  0.6155758651111469
  0.3733283253707071  0.8930209781017098  0.8849955246170254
  0.3711334980061736  0.8580718717682743  0.3850370481624168
  0.1283130348243020  0.6076917885909126  0.1145582789932078
  0.6293124056352468  0.6411809491544176  0.6151952690397806
  0.8713769215307536  0.8909138453896261  0.8848903178021885
  0.8712052051552774  0.8582993926382514  0.3841368957395233
  0.6283882706015973  0.6078865636821931  0.1143454140031963
  0.1929261689664585  0.1686601343667533  0.7301016807236280
  0.3066242150719560  0.4037324042989212  0.7613724667852608
  0.3109053419347063  0.3433268472401352  0.2594657786582175
  0.1892905361894961  0.0933998841036257  0.2405259628147505
  0.2759416311068463  0.0686256616996630  0.5869393295650625
  0.2221715651537934  0.2988624083488531  0.9120161173893280
  0.2217392279121242  0.4486139159090499  0.4081493955342168
  0.2776805352535092  0.1985480511304445  0.0913665944069990
  0.0437074989316955  0.4930490885917820  0.6529051426782644
  0.4611719538710162  0.2455438245916355  0.8463592847472938
  0.4603975473193032  0.0047662980929815  0.3458145731920581
  0.0389721811256436  0.2545358863738016  0.1540996867001994
  0.0656698959724835  0.1399471921954074  0.5057823441567777
  0.4447412418024328  0.3751912292947637  0.9949621521505421
  0.4436940312821989  0.3771680631645751  0.4966064754126336
  0.0554461888066555  0.1255365915936579  0.0033965692088174
  0.4729978386235061  0.2352295799853650  0.6519542316125992
  0.0266395422369428  0.4804120197551569  0.8431706776375378
  0.0236829801322500  0.2682298265226635  0.3449684582519055
  0.4759783231564327  0.0175151212115310  0.1540238268336083
  0.2944146758747550  0.0426660501255114  0.9085006020632349
  0.2928411272380274  0.2094754818821443  0.4092307601343350
  0.2079890794805621  0.4588997212149337  0.0911730914918039
  0.6796127802286094  0.1575058434489520  0.7412011406157788
  0.8138351234823844  0.4014355995532739  0.7564765852921553
  0.8100987963180586  0.3433163669369748  0.2594537477837804
  0.6888213304554114  0.0932610363769655  0.2403353707667009
  0.7753540957876552  0.0521016942817951  0.5945106823552067
  0.7261730866280516  0.3013790347708181  0.9056602120046833
  0.7217901605842627  0.4488731606418668  0.4085363892046416
  0.7778437984179192  0.1987495604184204  0.0913654955009306
  0.5427806200036613  0.4932603761676901  0.6537344400941549
  0.9672710739497390  0.2441246908849024  0.8469422842586098
  0.9611831929252901  0.0054777154536509  0.3466554933327970
  0.5389515240822647  0.2547886841112188  0.1539895793359349
  0.5560077611053913  0.1237589078467920  0.5019850148450899
  0.9450970701088863  0.3749326301853273  0.9962829987221227
  0.9446785511628804  0.3782293538501591  0.4961270510792701
  0.5559649087916085  0.1267317414666849  0.0030099782568058
  0.9823176488092358  0.2299848484218288  0.6524144218584027
  0.5206849547261925  0.4855636295601968  0.8466537620823260
  0.5240868111128876  0.2681536214690041  0.3456371691004350
  0.9761798106313222  0.0171913725518706  0.1546676491531613
  0.7076766285054461  0.2906195087554551  0.5909367222696034
  0.7951045929022058  0.0424748901775800  0.9082273632651976
  0.7930940068746750  0.2098016884095841  0.4094406767549117
  0.7079243216711930  0.4593384233388988  0.0903028525014449
  0.1956582880884170  0.6497699018127179  0.7404329374493201
  0.3104266765898984  0.9111612796578470  0.7594498996049950
  0.3107182818626910  0.8433326155064265  0.2596190818339821
  0.1889897204733586  0.5936426401080723  0.2402630237559151
  0.2794014930870006  0.5516371883407345  0.5873956679639178
  0.2223244002255811  0.8033727634346306  0.9088379848774366
  0.2216037377312858  0.9486700575620262  0.4083581240671208
  0.2774221689337679  0.6984412172485861  0.0910545533923539
  0.0339398124966763  0.9758510854721223  0.6514458820358158
  0.4590262455109126  0.7464821754760251  0.8448800636346832
  0.4605378264900537  0.5054622131726916  0.3457032202641130
  0.0388873171032884  0.7545346931272050  0.1537464044470767
  0.0537362603509663  0.6277366831850415  0.5038768806085372
  0.4437235590501913  0.8742773097845244  0.9970867606315110
  0.4431097358527580  0.8768418260034423  0.4969967224059317
  0.0551658276934788  0.6255655866612315  0.0030737318396419
  0.4759256615721910  0.7304352289779743  0.6548989552759892
  0.0245231646050996  0.9801190303499325  0.8416766434026783
  0.0234921276159028  0.7677552897547528  0.3447344043505467
  0.4760440315635464  0.5173289385553446  0.1539886626744362
  0.2080489996262216  0.7898226797646259  0.5937920890824913
  0.2878588568521323  0.5408569036260573  0.9099768019963719
  0.2917494124195557  0.7093167185759413  0.4091959945894530
  0.2078955330149270  0.9589872135073847  0.0912606840480024
  0.6905861839022336  0.6563690136079430  0.7401656462473909
  0.8101110508866967  0.9076495053499727  0.7595491689410778
  0.8106932134625069  0.8447890960482951  0.2591825305637769
  0.6890793853907127  0.5932565800519143  0.2401336043371174
  0.7795338307014603  0.5531233985616737  0.5900811404915203
  0.7212335440475286  0.8040944203711504  0.9101474468449879
  0.7224690745818023  0.9487408198940415  0.4088137061661286
  0.7776744574676684  0.6988455013887105  0.0913141075325825
  0.5342315900328671  0.9965921202750891  0.6527391987420756
  0.9565252159837385  0.7423427165910397  0.8478205223049500
  0.9601600321156880  0.5054996004485730  0.3450947321098141
  0.5390626813525756  0.7546018162834827  0.1542175514926569
  0.5554721099815438  0.6238478599284321  0.5035879487019130
  0.9469402106001539  0.8763736637400683  0.9958734235086411
  0.9445656289897499  0.8751910724461567  0.4962601150731913
  0.5554634514301284  0.6268759988014168  0.0029886356381255
  0.9796585300687184  0.7312452376036589  0.6594468183103999
  0.5267684076840098  0.9815775796273911  0.8461429876229971
  0.5237451179439816  0.7676624841420008  0.3460508662142985
  0.9759805390255352  0.5170325432836620  0.1542244877544263
  0.7067693515837377  0.7916521869250630  0.5913722917492734
  0.7932582155211918  0.5391308503440229  0.9050143355085183
  0.7918480738334708  0.7094540528365556  0.4083258073590272
  0.7077813532015682  0.9593025711655159  0.0908009836159209
 
  0.00000000E+00  0.00000000E+00  0.00000000E+00
  0.00000000E+00  0.00000000E+00  0.00000000E+00
  0.00000000E+00  0.00000000E+00  0.00000000E+00
  0.00000000E+00  0.00000000E+00  0.00000000E+00
  0.00000000E+00  0.00000000E+00  0.00000000E+00
  0.00000000E+00  0.00000000E+00  0.00000000E+00
  0.00000000E+00  0.00000000E+00  0.00000000E+00
  0.00000000E+00  0.00000000E+00  0.00000000E+00
  0.00000000E+00  0.00000000E+00  0.00000000E+00
  0.00000000E+00  0.00000000E+00  0.00000000E+00
  0.00000000E+00  0.00000000E+00  0.00000000E+00
  0.00000000E+00  0.00000000E+00  0.00000000E+00
  0.00000000E+00  0.00000000E+00  0.00000000E+00
  0.00000000E+00  0.00000000E+00  0.00000000E+00
  0.00000000E+00  0.00000000E+00  0.00000000E+00
  0.00000000E+00  0.00000000E+00  0.00000000E+00
  0.00000000E+00  0.00000000E+00  0.00000000E+00
  0.00000000E+00  0.00000000E+00  0.00000000E+00
  0.00000000E+00  0.00000000E+00  0.00000000E+00
  0.00000000E+00  0.00000000E+00  0.00000000E+00
  0.00000000E+00  0.00000000E+00  0.00000000E+00
  0.00000000E+00  0.00000000E+00  0.00000000E+00
  0.00000000E+00  0.00000000E+00  0.00000000E+00
  0.00000000E+00  0.00000000E+00  0.00000000E+00
  0.00000000E+00  0.00000000E+00  0.00000000E+00
  0.00000000E+00  0.00000000E+00  0.00000000E+00
  0.00000000E+00  0.00000000E+00  0.00000000E+00
  0.00000000E+00  0.00000000E+00  0.00000000E+00
  0.00000000E+00  0.00000000E+00  0.00000000E+00
  0.00000000E+00  0.00000000E+00  0.00000000E+00
  0.00000000E+00  0.00000000E+00  0.00000000E+00
  0.00000000E+00  0.00000000E+00  0.00000000E+00
  0.00000000E+00  0.00000000E+00  0.00000000E+00
  0.00000000E+00  0.00000000E+00  0.00000000E+00
  0.00000000E+00  0.00000000E+00  0.00000000E+00
  0.00000000E+00  0.00000000E+00  0.00000000E+00
  0.00000000E+00  0.00000000E+00  0.00000000E+00
  0.00000000E+00  0.00000000E+00  0.00000000E+00
  0.00000000E+00  0.00000000E+00  0.00000000E+00
  0.00000000E+00  0.00000000E+00  0.00000000E+00
  0.00000000E+00  0.00000000E+00  0.00000000E+00
  0.00000000E+00  0.00000000E+00  0.00000000E+00
  0.00000000E+00  0.00000000E+00  0.00000000E+00
  0.00000000E+00  0.00000000E+00  0.00000000E+00
  0.00000000E+00  0.00000000E+00  0.00000000E+00
  0.00000000E+00  0.00000000E+00  0.00000000E+00
  0.00000000E+00  0.00000000E+00  0.00000000E+00
  0.00000000E+00  0.00000000E+00  0.00000000E+00
  0.00000000E+00  0.00000000E+00  0.00000000E+00
  0.00000000E+00  0.00000000E+00  0.00000000E+00
  0.00000000E+00  0.00000000E+00  0.00000000E+00
  0.00000000E+00  0.00000000E+00  0.00000000E+00
  0.00000000E+00  0.00000000E+00  0.00000000E+00
  0.00000000E+00  0.00000000E+00  0.00000000E+00
  0.00000000E+00  0.00000000E+00  0.00000000E+00
  0.00000000E+00  0.00000000E+00  0.00000000E+00
  0.00000000E+00  0.00000000E+00  0.00000000E+00
  0.00000000E+00  0.00000000E+00  0.00000000E+00
  0.00000000E+00  0.00000000E+00  0.00000000E+00
  0.00000000E+00  0.00000000E+00  0.00000000E+00
  0.00000000E+00  0.00000000E+00  0.00000000E+00
  0.00000000E+00  0.00000000E+00  0.00000000E+00
  0.00000000E+00  0.00000000E+00  0.00000000E+00
  0.00000000E+00  0.00000000E+00  0.00000000E+00
  0.00000000E+00  0.00000000E+00  0.00000000E+00
  0.00000000E+00  0.00000000E+00  0.00000000E+00
  0.00000000E+00  0.00000000E+00  0.00000000E+00
  0.00000000E+00  0.00000000E+00  0.00000000E+00
  0.00000000E+00  0.00000000E+00  0.00000000E+00
  0.00000000E+00  0.00000000E+00  0.00000000E+00
  0.00000000E+00  0.00000000E+00  0.00000000E+00
  0.00000000E+00  0.00000000E+00  0.00000000E+00
  0.00000000E+00  0.00000000E+00  0.00000000E+00
  0.00000000E+00  0.00000000E+00  0.00000000E+00
  0.00000000E+00  0.00000000E+00  0.00000000E+00
  0.00000000E+00  0.00000000E+00  0.00000000E+00
  0.00000000E+00  0.00000000E+00  0.00000000E+00
  0.00000000E+00  0.00000000E+00  0.00000000E+00
  0.00000000E+00  0.00000000E+00  0.00000000E+00
  0.00000000E+00  0.00000000E+00  0.00000000E+00
  0.00000000E+00  0.00000000E+00  0.00000000E+00
  0.00000000E+00  0.00000000E+00  0.00000000E+00
  0.00000000E+00  0.00000000E+00  0.00000000E+00
  0.00000000E+00  0.00000000E+00  0.00000000E+00
  0.00000000E+00  0.00000000E+00  0.00000000E+00
  0.00000000E+00  0.00000000E+00  0.00000000E+00
  0.00000000E+00  0.00000000E+00  0.00000000E+00
  0.00000000E+00  0.00000000E+00  0.00000000E+00
  0.00000000E+00  0.00000000E+00  0.00000000E+00
  0.00000000E+00  0.00000000E+00  0.00000000E+00
  0.00000000E+00  0.00000000E+00  0.00000000E+00
  0.00000000E+00  0.00000000E+00  0.00000000E+00
  0.00000000E+00  0.00000000E+00  0.00000000E+00
  0.00000000E+00  0.00000000E+00  0.00000000E+00
  0.00000000E+00  0.00000000E+00  0.00000000E+00
  0.00000000E+00  0.00000000E+00  0.00000000E+00
  0.00000000E+00  0.00000000E+00  0.00000000E+00
  0.00000000E+00  0.00000000E+00  0.00000000E+00
  0.00000000E+00  0.00000000E+00  0.00000000E+00
  0.00000000E+00  0.00000000E+00  0.00000000E+00
  0.00000000E+00  0.00000000E+00  0.00000000E+00
  0.00000000E+00  0.00000000E+00  0.00000000E+00
  0.00000000E+00  0.00000000E+00  0.00000000E+00
  0.00000000E+00  0.00000000E+00  0.00000000E+00
  0.00000000E+00  0.00000000E+00  0.00000000E+00
  0.00000000E+00  0.00000000E+00  0.00000000E+00
  0.00000000E+00  0.00000000E+00  0.00000000E+00
  0.00000000E+00  0.00000000E+00  0.00000000E+00
  0.00000000E+00  0.00000000E+00  0.00000000E+00
  0.00000000E+00  0.00000000E+00  0.00000000E+00
  0.00000000E+00  0.00000000E+00  0.00000000E+00
  0.00000000E+00  0.00000000E+00  0.00000000E+00
  0.00000000E+00  0.00000000E+00  0.00000000E+00
  0.00000000E+00  0.00000000E+00  0.00000000E+00
  0.00000000E+00  0.00000000E+00  0.00000000E+00
  0.00000000E+00  0.00000000E+00  0.00000000E+00
  0.00000000E+00  0.00000000E+00  0.00000000E+00
  0.00000000E+00  0.00000000E+00  0.00000000E+00
  0.00000000E+00  0.00000000E+00  0.00000000E+00
  0.00000000E+00  0.00000000E+00  0.00000000E+00
  0.00000000E+00  0.00000000E+00  0.00000000E+00
  0.00000000E+00  0.00000000E+00  0.00000000E+00
  0.00000000E+00  0.00000000E+00  0.00000000E+00
  0.00000000E+00  0.00000000E+00  0.00000000E+00
  0.00000000E+00  0.00000000E+00  0.00000000E+00
  0.00000000E+00  0.00000000E+00  0.00000000E+00
