supercell of natacl6_p21c.cif           
   1.00000000000000     
    12.8086700406632197    0.0000004227264436   -0.0315492974735766
     0.0000004651105324   13.6960863482870359   -0.0000019106395650
    -0.3327533513840475   -0.0000026420200669   18.8435734257652570
   Na   Ta   Cl
    15    16    95
Direct
  0.1094512885036707  0.3586367924419136  0.7614281012460253
  0.1054876051422298  0.4053477992278545  0.2512427016690779
  0.3946772936691403  0.1549124604667256  0.2462835864144353
  0.8827365339006406  0.0953785238281100  0.7513179890433150
  0.6014145833765454  0.3437069455345991  0.7493810110983574
  0.6028710214150195  0.4052596454932669  0.2514113004286429
  0.8933129702038229  0.1559911573995123  0.2446675319674085
  0.3997721372153293  0.5965065214881236  0.7520379190532154
  0.1191491235368076  0.8328340279726305  0.7703478210757453
  0.1055179317624919  0.9039638308470401  0.2520509560687572
  0.3946506461104704  0.6552667138148678  0.2460034406940892
  0.8915584203762066  0.5959525611327479  0.7440136392774619
  0.5988675195976256  0.8480746762956599  0.7526957231550995
  0.6037541307287881  0.9052079291955337  0.2520558841177802
  0.8948225593276007  0.6543993083578670  0.2456171449984126
  0.1225346022290523  0.1368775541781631  0.5970482799156471
  0.3747157320439598  0.3881585130016063  0.8839932979153602
  0.3725361964795297  0.3586128105842050  0.3850410796261343
  0.1280548495613161  0.1075314170516464  0.1147032688916099
  0.6235061881198902  0.1401455261182463  0.6181765693946701
  0.8693305169475636  0.3931638732959684  0.8856814950559055
  0.8705561854993888  0.3589692353247074  0.3845538254094478
  0.6279298980111747  0.1076924494640892  0.1145293879914391
  0.1290239774916131  0.6413426603538923  0.6150027918002934
  0.3725012264626386  0.9007646119401684  0.8812386509615280
  0.3726026530291264  0.8577489870065946  0.3845664466400791
  0.1287090534506348  0.6084303423405544  0.1147048010824889
  0.6273312567768841  0.6422341289605669  0.6150455726701480
  0.8695451806514356  0.8905405683016383  0.8846669145112784
  0.8707205641693534  0.8573851093152456  0.3847674256074995
  0.6279430475851981  0.6084292349647598  0.1145831568274076
  0.3149058668094114  0.4053548824885453  0.7570166008733850
  0.3111509613995764  0.3433894292514807  0.2598144119395087
  0.1885188141583072  0.0930952462853512  0.2404738640780835
  0.2763900690016357  0.0535080442227667  0.5906559247985470
  0.2194856029013934  0.3033822546675466  0.9054951208971715
  0.2223130430810443  0.4475465088401052  0.4090710254169210
  0.2770225275198470  0.1984828707874371  0.0914387579459941
  0.0378403720501126  0.4945036726432974  0.6541259426717545
  0.4580841737092456  0.2435306638596728  0.8456292855811967
  0.4608204705366177  0.0047887146061854  0.3455624790424636
  0.0385952263478870  0.2543325845781439  0.1539427019272921
  0.0488672702620434  0.1237697697518456  0.4893411108529619
  0.4418047521158499  0.3723282418505320  0.9974381553287017
  0.4447537466680558  0.3758894109822961  0.4968765751803161
  0.0549507243520111  0.1257255292308486  0.0031788754419324
  0.4724313469465002  0.2274506657297337  0.6538336916832534
  0.0190075796963569  0.4900587215047167  0.8481878302512911
  0.0233440280605066  0.2686731159314206  0.3436203584537836
  0.4756382197112146  0.0169911797624991  0.1537471394290151
  0.2118372664992592  0.2833651667102188  0.5950238271909853
  0.2893119297874307  0.0447627246306794  0.9113276714553535
  0.2935818897923781  0.2084520982355471  0.4087425487048932
  0.2078442195430839  0.4592321181152386  0.0909983635269285
  0.6823986464116345  0.1557204909061838  0.7442608364249352
  0.8098545537353985  0.4071823235302574  0.7603362637429143
  0.8091517241390491  0.3444502876868043  0.2597875907496743
  0.6884386303487133  0.0929296086796754  0.2403988661373404
  0.7818024651498021  0.0556580696079010  0.5973768592577855
  0.7237304663398731  0.2983567207712312  0.9087040086771552
  0.7222697628906758  0.4485939539742674  0.4101220607782849
  0.7775093034026597  0.1984047383207894  0.0917266196151232
  0.5380747867145530  0.4956832747089663  0.6540202877565306
  0.9639891062601578  0.2488975279811356  0.8444688287650948
  0.9593597585903311  0.0039012675419485  0.3436068809518673
  0.5386443181426017  0.2543309099616096  0.1540986784904561
  0.5610270449271155  0.1234337447689668  0.5030428522593056
  0.9444123980065555  0.3734099065860974  0.9965869026008747
  0.9456899138630135  0.3748125548709424  0.4963905656194925
  0.5557698638100419  0.1265754047971797  0.0030609167375815
  0.9968878650148341  0.2270361332785029  0.6636082502535103
  0.5273550459175951  0.4798447945301518  0.8464379269762645
  0.5246516881436349  0.2680920296041478  0.3455771229241336
  0.9757329151588721  0.0167051390806563  0.1541450378386955
  0.7073482092925403  0.2899969510017328  0.5956922685156130
  0.7920526234896101  0.0409617900379899  0.9077600711031977
  0.7928481753018914  0.2091606929264458  0.4086194589490830
  0.7072342953505881  0.4591027044659128  0.0910799683553236
  0.1925834501973043  0.6503130097498300  0.7396928004268588
  0.3110819668435383  0.9172632147706139  0.7584038580417385
  0.3115635353587152  0.8431943438371121  0.2592768700817842
  0.1888550529561357  0.5936937518481500  0.2405653112567165
  0.2756999390442303  0.5491695062585080  0.5886901186482802
  0.2231580633081975  0.8039934194720004  0.9048024648640691
  0.2220404955364970  0.9475642336138606  0.4078705328001462
  0.2776729065747361  0.6987039743546362  0.0913377795946246
  0.0523170982905299  0.0016226438310696  0.6568440688454942
  0.4602594845985308  0.7497325673551813  0.8430903108160734
  0.4605978640211390  0.5052854144057051  0.3460307137893608
  0.0387337732577748  0.7546623189330077  0.1542009377910958
  0.0519436990804252  0.6245237978688181  0.5043125519176286
  0.4401071020967180  0.8741667883172468  0.9945842014014090
  0.4444730201208458  0.8769456168257648  0.4963432504636742
  0.0555553768264687  0.6269283135418178  0.0034359108799293
  0.4741492915090149  0.7317321486052037  0.6527144304490307
  0.0213249236119140  0.9820957320368890  0.8422990142874482
  0.0232527641354423  0.7670299352629897  0.3452705361654083
  0.4753775322314553  0.5175553030521201  0.1541876859023006
  0.2104797831397534  0.7889950432104484  0.5906667933358705
  0.2949358464807901  0.5393924593101715  0.9058578346912540
  0.2931692060073559  0.7088084874440952  0.4088605953723388
  0.2078930001286210  0.9589340306626397  0.0911267684685910
  0.6866395423002061  0.6582648750183111  0.7405355939727443
  0.8083333497312779  0.9027465893776139  0.7596372861553533
  0.8089159028142987  0.8416323559774170  0.2600871969687049
  0.6886279822587937  0.5932604344652574  0.2403356913467860
  0.7774725344328459  0.5515995617226750  0.5925690333753906
  0.7208697463180727  0.8023954720476212  0.9112790700191198
  0.7225715581159236  0.9483620924702265  0.4091244098688094
  0.7774573033799399  0.6983724883020983  0.0911730535282942
  0.5418037458935530  0.9912013029044076  0.6513899539079731
  0.9572496856959134  0.7423669995289544  0.8475030425565677
  0.9601149339382218  0.5051794728115482  0.3459360785140433
  0.5389505406339836  0.7549317644327900  0.1538647926950603
  0.5563351283557196  0.6227392401745178  0.5027496642211489
  0.9465156709816043  0.8756205437679583  0.9954228509768868
  0.9456615413557259  0.8775910803032616  0.4961831940637040
  0.5546773340786686  0.6263756786102732  0.0031944303509235
  0.9809246182098335  0.7354170578918300  0.6573123770146410
  0.5252168667609851  0.9866488290547082  0.8469872256056377
  0.5248005288963000  0.7673895459869655  0.3455341344956935
  0.9761066943984247  0.5170556824869408  0.1541089858907583
  0.7073982090363415  0.7905776326156797  0.5903112627131506
  0.7865085934592315  0.5394337980455646  0.9111014489127527
  0.7925193976962248  0.7087851078914511  0.4104864017370602
  0.7079081927742408  0.9590172998806636  0.0907522884148335
 
  0.00000000E+00  0.00000000E+00  0.00000000E+00
  0.00000000E+00  0.00000000E+00  0.00000000E+00
  0.00000000E+00  0.00000000E+00  0.00000000E+00
  0.00000000E+00  0.00000000E+00  0.00000000E+00
  0.00000000E+00  0.00000000E+00  0.00000000E+00
  0.00000000E+00  0.00000000E+00  0.00000000E+00
  0.00000000E+00  0.00000000E+00  0.00000000E+00
  0.00000000E+00  0.00000000E+00  0.00000000E+00
  0.00000000E+00  0.00000000E+00  0.00000000E+00
  0.00000000E+00  0.00000000E+00  0.00000000E+00
  0.00000000E+00  0.00000000E+00  0.00000000E+00
  0.00000000E+00  0.00000000E+00  0.00000000E+00
  0.00000000E+00  0.00000000E+00  0.00000000E+00
  0.00000000E+00  0.00000000E+00  0.00000000E+00
  0.00000000E+00  0.00000000E+00  0.00000000E+00
  0.00000000E+00  0.00000000E+00  0.00000000E+00
  0.00000000E+00  0.00000000E+00  0.00000000E+00
  0.00000000E+00  0.00000000E+00  0.00000000E+00
  0.00000000E+00  0.00000000E+00  0.00000000E+00
  0.00000000E+00  0.00000000E+00  0.00000000E+00
  0.00000000E+00  0.00000000E+00  0.00000000E+00
  0.00000000E+00  0.00000000E+00  0.00000000E+00
  0.00000000E+00  0.00000000E+00  0.00000000E+00
  0.00000000E+00  0.00000000E+00  0.00000000E+00
  0.00000000E+00  0.00000000E+00  0.00000000E+00
  0.00000000E+00  0.00000000E+00  0.00000000E+00
  0.00000000E+00  0.00000000E+00  0.00000000E+00
  0.00000000E+00  0.00000000E+00  0.00000000E+00
  0.00000000E+00  0.00000000E+00  0.00000000E+00
  0.00000000E+00  0.00000000E+00  0.00000000E+00
  0.00000000E+00  0.00000000E+00  0.00000000E+00
  0.00000000E+00  0.00000000E+00  0.00000000E+00
  0.00000000E+00  0.00000000E+00  0.00000000E+00
  0.00000000E+00  0.00000000E+00  0.00000000E+00
  0.00000000E+00  0.00000000E+00  0.00000000E+00
  0.00000000E+00  0.00000000E+00  0.00000000E+00
  0.00000000E+00  0.00000000E+00  0.00000000E+00
  0.00000000E+00  0.00000000E+00  0.00000000E+00
  0.00000000E+00  0.00000000E+00  0.00000000E+00
  0.00000000E+00  0.00000000E+00  0.00000000E+00
  0.00000000E+00  0.00000000E+00  0.00000000E+00
  0.00000000E+00  0.00000000E+00  0.00000000E+00
  0.00000000E+00  0.00000000E+00  0.00000000E+00
  0.00000000E+00  0.00000000E+00  0.00000000E+00
  0.00000000E+00  0.00000000E+00  0.00000000E+00
  0.00000000E+00  0.00000000E+00  0.00000000E+00
  0.00000000E+00  0.00000000E+00  0.00000000E+00
  0.00000000E+00  0.00000000E+00  0.00000000E+00
  0.00000000E+00  0.00000000E+00  0.00000000E+00
  0.00000000E+00  0.00000000E+00  0.00000000E+00
  0.00000000E+00  0.00000000E+00  0.00000000E+00
  0.00000000E+00  0.00000000E+00  0.00000000E+00
  0.00000000E+00  0.00000000E+00  0.00000000E+00
  0.00000000E+00  0.00000000E+00  0.00000000E+00
  0.00000000E+00  0.00000000E+00  0.00000000E+00
  0.00000000E+00  0.00000000E+00  0.00000000E+00
  0.00000000E+00  0.00000000E+00  0.00000000E+00
  0.00000000E+00  0.00000000E+00  0.00000000E+00
  0.00000000E+00  0.00000000E+00  0.00000000E+00
  0.00000000E+00  0.00000000E+00  0.00000000E+00
  0.00000000E+00  0.00000000E+00  0.00000000E+00
  0.00000000E+00  0.00000000E+00  0.00000000E+00
  0.00000000E+00  0.00000000E+00  0.00000000E+00
  0.00000000E+00  0.00000000E+00  0.00000000E+00
  0.00000000E+00  0.00000000E+00  0.00000000E+00
  0.00000000E+00  0.00000000E+00  0.00000000E+00
  0.00000000E+00  0.00000000E+00  0.00000000E+00
  0.00000000E+00  0.00000000E+00  0.00000000E+00
  0.00000000E+00  0.00000000E+00  0.00000000E+00
  0.00000000E+00  0.00000000E+00  0.00000000E+00
  0.00000000E+00  0.00000000E+00  0.00000000E+00
  0.00000000E+00  0.00000000E+00  0.00000000E+00
  0.00000000E+00  0.00000000E+00  0.00000000E+00
  0.00000000E+00  0.00000000E+00  0.00000000E+00
  0.00000000E+00  0.00000000E+00  0.00000000E+00
  0.00000000E+00  0.00000000E+00  0.00000000E+00
  0.00000000E+00  0.00000000E+00  0.00000000E+00
  0.00000000E+00  0.00000000E+00  0.00000000E+00
  0.00000000E+00  0.00000000E+00  0.00000000E+00
  0.00000000E+00  0.00000000E+00  0.00000000E+00
  0.00000000E+00  0.00000000E+00  0.00000000E+00
  0.00000000E+00  0.00000000E+00  0.00000000E+00
  0.00000000E+00  0.00000000E+00  0.00000000E+00
  0.00000000E+00  0.00000000E+00  0.00000000E+00
  0.00000000E+00  0.00000000E+00  0.00000000E+00
  0.00000000E+00  0.00000000E+00  0.00000000E+00
  0.00000000E+00  0.00000000E+00  0.00000000E+00
  0.00000000E+00  0.00000000E+00  0.00000000E+00
  0.00000000E+00  0.00000000E+00  0.00000000E+00
  0.00000000E+00  0.00000000E+00  0.00000000E+00
  0.00000000E+00  0.00000000E+00  0.00000000E+00
  0.00000000E+00  0.00000000E+00  0.00000000E+00
  0.00000000E+00  0.00000000E+00  0.00000000E+00
  0.00000000E+00  0.00000000E+00  0.00000000E+00
  0.00000000E+00  0.00000000E+00  0.00000000E+00
  0.00000000E+00  0.00000000E+00  0.00000000E+00
  0.00000000E+00  0.00000000E+00  0.00000000E+00
  0.00000000E+00  0.00000000E+00  0.00000000E+00
  0.00000000E+00  0.00000000E+00  0.00000000E+00
  0.00000000E+00  0.00000000E+00  0.00000000E+00
  0.00000000E+00  0.00000000E+00  0.00000000E+00
  0.00000000E+00  0.00000000E+00  0.00000000E+00
  0.00000000E+00  0.00000000E+00  0.00000000E+00
  0.00000000E+00  0.00000000E+00  0.00000000E+00
  0.00000000E+00  0.00000000E+00  0.00000000E+00
  0.00000000E+00  0.00000000E+00  0.00000000E+00
  0.00000000E+00  0.00000000E+00  0.00000000E+00
  0.00000000E+00  0.00000000E+00  0.00000000E+00
  0.00000000E+00  0.00000000E+00  0.00000000E+00
  0.00000000E+00  0.00000000E+00  0.00000000E+00
  0.00000000E+00  0.00000000E+00  0.00000000E+00
  0.00000000E+00  0.00000000E+00  0.00000000E+00
  0.00000000E+00  0.00000000E+00  0.00000000E+00
  0.00000000E+00  0.00000000E+00  0.00000000E+00
  0.00000000E+00  0.00000000E+00  0.00000000E+00
  0.00000000E+00  0.00000000E+00  0.00000000E+00
  0.00000000E+00  0.00000000E+00  0.00000000E+00
  0.00000000E+00  0.00000000E+00  0.00000000E+00
  0.00000000E+00  0.00000000E+00  0.00000000E+00
  0.00000000E+00  0.00000000E+00  0.00000000E+00
  0.00000000E+00  0.00000000E+00  0.00000000E+00
  0.00000000E+00  0.00000000E+00  0.00000000E+00
  0.00000000E+00  0.00000000E+00  0.00000000E+00
  0.00000000E+00  0.00000000E+00  0.00000000E+00
  0.00000000E+00  0.00000000E+00  0.00000000E+00
  0.00000000E+00  0.00000000E+00  0.00000000E+00
