supercell of natacl6_p21c.cif           
   1.00000000000000     
    12.8086700406632197    0.0000004227264436   -0.0315492974735766
     0.0000004651105324   13.6960863482870359   -0.0000019106395650
    -0.3327533513840475   -0.0000026420200669   18.8435734257652570
   Na   Ta   Cl
    17    16    96
Direct
  0.3781430555100798  0.1039815743502075  0.7400675012208779
  0.1050319800906507  0.3458149729358340  0.7434088327198580
  0.1060373837395119  0.4038057920137277  0.2529207398519517
  0.3983800938666704  0.1525936140270403  0.2501305962273150
  0.9056436594493533  0.0969901109745592  0.7427680591732297
  0.6080286459489770  0.3447903744144156  0.7588061406572422
  0.6021854802973223  0.4060655245400184  0.2558646198641981
  0.8946396499124418  0.1540577898749902  0.2468744326924579
  0.3886292845224943  0.5947909145479358  0.7528978057591402
  0.0955628589764714  0.8523169362135334  0.7494537194036113
  0.1195794672627102  0.9130064488575442  0.2766942240605772
  0.3959926761696266  0.6559003412849052  0.2510421727921184
  0.8976229868803713  0.5983735479790013  0.7552627398679519
  0.6112930629402200  0.8432050237832556  0.7593233417292140
  0.6014865106921903  0.9025293303433841  0.2527914344448448
  0.8957982566340519  0.6579203772495674  0.2473086454847078
  0.3649758826037370  0.8918011632220910  0.6095474483135277
  0.1221612286159726  0.1496535541542983  0.6179481806328937
  0.3709202546017565  0.3925951266307237  0.8876588612868730
  0.3702477937254187  0.3558428509762450  0.3871960484532480
  0.1282720474581254  0.1083809838463594  0.1164765397547640
  0.6321281577703601  0.1453782977516909  0.6166771149509884
  0.8749354508892750  0.3926778173220669  0.8847699025750089
  0.8703213021148315  0.3566871975677515  0.3847623636017872
  0.6280722518633510  0.1094488721344149  0.1149167693508915
  0.1165330008553411  0.6420147918246499  0.6117047721933275
  0.3705753462794377  0.8942793557314701  0.8860961039138573
  0.3769471250458594  0.8540193809220895  0.3781348000026483
  0.1277543077888623  0.6095263932995181  0.1164535920590311
  0.6269288926769008  0.6387669803181879  0.6151367773459313
  0.8718057397039161  0.8957712894343430  0.8864585428990210
  0.8661371732930192  0.8585511813641062  0.3861173403287452
  0.6300464781460065  0.6079940225185254  0.1142931850789992
  0.1760469795000645  0.1572966976647976  0.7481352635586660
  0.3094172324438773  0.4091326160293107  0.7628088181105852
  0.3115431882802042  0.3406427185763263  0.2611378720751389
  0.1914049021266848  0.0974495738203132  0.2407877108286272
  0.2899047965001458  0.0706623249942311  0.5967170549299396
  0.2222303367969545  0.3035955617182537  0.9130238846274992
  0.2201627421801717  0.4462466846456081  0.4087084977275879
  0.2757462865819775  0.2009532615655871  0.0912671123747728
  0.0319594789566651  0.4978383367201005  0.6538611818343014
  0.4579473518261352  0.2457933501643126  0.8468368123452095
  0.4654063803451933  0.0047505766054456  0.3410136220921487
  0.0370521876906551  0.2551803076542853  0.1551855923781460
  0.0592242935814440  0.1258649249122143  0.5036084026848826
  0.4460581260529182  0.3749731475274842  0.9985340088005472
  0.4411602086178519  0.3760377503734063  0.4994056269015914
  0.0517961704627581  0.1277396203474837  0.0054380060297774
  0.4832187762611682  0.2377502680783721  0.6584953016537654
  0.0298354897312336  0.4798831289961853  0.8447392956389521
  0.0222095289842912  0.2663067991432371  0.3450363798190565
  0.4755009059245836  0.0187157528749893  0.1516558082733752
  0.2068227134178926  0.3036977467070301  0.6036408665166562
  0.2895258626604331  0.0421897559022284  0.9097544062039020
  0.2926353220364035  0.2069679405027571  0.4114519078518768
  0.2045122648910933  0.4589825506095409  0.0910171809172908
  0.6980604194381783  0.1601842353258434  0.7406942450661518
  0.8128294192008809  0.4090393476200092  0.7597602528193121
  0.8073727427247164  0.3413999210729912  0.2599096359189303
  0.6892740044857888  0.0918499126138599  0.2394450845605931
  0.7772703685095692  0.0510130343122697  0.5914317052098994
  0.7221613630880270  0.3074588238048790  0.9095299944965660
  0.7212291887562472  0.4477380628666481  0.4091369865953425
  0.7777133117532600  0.2001128910662757  0.0914918068608230
  0.5365865101340219  0.4952517953506543  0.6569215273677571
  0.9596361882414755  0.2453881056913900  0.8475726766597873
  0.9556069883432485  0.0058655788757065  0.3483588619857656
  0.5395351981295775  0.2553829865029726  0.1559164441108010
  0.5515296768998112  0.1217338337468163  0.5084022547721290
  0.9452976281649512  0.3762360741460284  0.9972376754567662
  0.9446349888333643  0.3754779976901688  0.4959239220059644
  0.5558882476759948  0.1306841782460637  0.0029988908562260
  0.9659822933214812  0.2404144722285935  0.6546764148723128
  0.5238995115576444  0.4834314280750931  0.8476704549849003
  0.5243306433582475  0.2663096028015559  0.3487102921708356
  0.9796710572612284  0.0154475004451058  0.1578620393898760
  0.7099198199391310  0.2919843806074880  0.5877533475314962
  0.7905440814021034  0.0434532686643152  0.9108085137721957
  0.7909375140613477  0.2082212949231277  0.4098211981063855
  0.7076147611886157  0.4580538267573644  0.0892878171254310
  0.1857039777297445  0.6656802439342471  0.7351189127624949
  0.3059047633999015  0.9088112217497155  0.7589552393304473
  0.3106033267049568  0.8422126446459401  0.2526233585822553
  0.1903793419405844  0.5910937574172266  0.2406757725038986
  0.2700119269030949  0.5592144655870825  0.5882079453691134
  0.2216136129626847  0.8030530243854272  0.9084398464497454
  0.2271167700025671  0.9481387214792036  0.4104597246790007
  0.2779148701840626  0.6964168608431649  0.0899637465105485
  0.0382594807863654  0.9938246366454138  0.6546404349464652
  0.4586569700440251  0.7475529552092794  0.8459221570743338
  0.4603126431789448  0.5020836050384645  0.3476182605819247
  0.0433425893963175  0.7561104044432696  0.1574237728635666
  0.0420072399391174  0.6200709412430854  0.5012669066179427
  0.4437271189662795  0.8750040227972491  0.9970587947503020
  0.4652756095895825  0.8726917000929078  0.4912906398680903
  0.0524913342841060  0.6281845623840852  0.0050181288762445
  0.4729154493386574  0.7302519350830678  0.6611701319058341
  0.0243247554312305  0.9858854900511886  0.8499411941902935
  0.0192842846871386  0.7666995632625131  0.3483592781188278
  0.4770255771311227  0.5187607142211803  0.1548258128197944
  0.1844733295123930  0.7960851138377691  0.5797121055216863
  0.2929413518677535  0.5430127274290939  0.9114653577969136
  0.2963345289624542  0.7041645501360208  0.4045091352529013
  0.2090266771568494  0.9616055513272030  0.0897263448404644
  0.6909468509899312  0.6549771561501103  0.7399730097513952
  0.8131357759888687  0.9105677312371796  0.7608836612468295
  0.8086830791848740  0.8439848422983829  0.2598603437079348
  0.6916845984161668  0.5920056794650819  0.2389426716163356
  0.7732752834319427  0.5494623897287951  0.5874630510060683
  0.7218604959515318  0.8030478631142230  0.9072832957710020
  0.7169787441348845  0.9483579711060699  0.4086777426384458
  0.7803978614757980  0.6968836983963129  0.0905148830915294
  0.5434631586617158  0.9971648420885231  0.6621616578868483
  0.9633669965114464  0.7496003586514490  0.8473915938191610
  0.9585337834315979  0.5033869738438028  0.3445693436339639
  0.5419065683682618  0.7549249519536403  0.1507146695654882
  0.5462197624695051  0.6250451844776563  0.5061510481456679
  0.9405756426981924  0.8743737513145220  0.9990749077734975
  0.9370560498689073  0.8770299491417646  0.4982322257839940
  0.5577861349450330  0.6250224833817981  0.0019281633076247
  0.9658236993025682  0.7318741900262111  0.6544436133570599
  0.5198243410933259  0.9853301683118687  0.8450311596715636
  0.5319091366819251  0.7596129391864324  0.3398400818474414
  0.9747723563714104  0.5185241055446497  0.1556524791916658
  0.7010256514185684  0.7900484213574117  0.5919605789908502
  0.7994659661432948  0.5450998097272404  0.9071853754008004
  0.7868053670366351  0.7091690323610820  0.4096404436359151
  0.7075462086312356  0.9609270692128575  0.0889074360651421
 
  0.00000000E+00  0.00000000E+00  0.00000000E+00
  0.00000000E+00  0.00000000E+00  0.00000000E+00
  0.00000000E+00  0.00000000E+00  0.00000000E+00
  0.00000000E+00  0.00000000E+00  0.00000000E+00
  0.00000000E+00  0.00000000E+00  0.00000000E+00
  0.00000000E+00  0.00000000E+00  0.00000000E+00
  0.00000000E+00  0.00000000E+00  0.00000000E+00
  0.00000000E+00  0.00000000E+00  0.00000000E+00
  0.00000000E+00  0.00000000E+00  0.00000000E+00
  0.00000000E+00  0.00000000E+00  0.00000000E+00
  0.00000000E+00  0.00000000E+00  0.00000000E+00
  0.00000000E+00  0.00000000E+00  0.00000000E+00
  0.00000000E+00  0.00000000E+00  0.00000000E+00
  0.00000000E+00  0.00000000E+00  0.00000000E+00
  0.00000000E+00  0.00000000E+00  0.00000000E+00
  0.00000000E+00  0.00000000E+00  0.00000000E+00
  0.00000000E+00  0.00000000E+00  0.00000000E+00
  0.00000000E+00  0.00000000E+00  0.00000000E+00
  0.00000000E+00  0.00000000E+00  0.00000000E+00
  0.00000000E+00  0.00000000E+00  0.00000000E+00
  0.00000000E+00  0.00000000E+00  0.00000000E+00
  0.00000000E+00  0.00000000E+00  0.00000000E+00
  0.00000000E+00  0.00000000E+00  0.00000000E+00
  0.00000000E+00  0.00000000E+00  0.00000000E+00
  0.00000000E+00  0.00000000E+00  0.00000000E+00
  0.00000000E+00  0.00000000E+00  0.00000000E+00
  0.00000000E+00  0.00000000E+00  0.00000000E+00
  0.00000000E+00  0.00000000E+00  0.00000000E+00
  0.00000000E+00  0.00000000E+00  0.00000000E+00
  0.00000000E+00  0.00000000E+00  0.00000000E+00
  0.00000000E+00  0.00000000E+00  0.00000000E+00
  0.00000000E+00  0.00000000E+00  0.00000000E+00
  0.00000000E+00  0.00000000E+00  0.00000000E+00
  0.00000000E+00  0.00000000E+00  0.00000000E+00
  0.00000000E+00  0.00000000E+00  0.00000000E+00
  0.00000000E+00  0.00000000E+00  0.00000000E+00
  0.00000000E+00  0.00000000E+00  0.00000000E+00
  0.00000000E+00  0.00000000E+00  0.00000000E+00
  0.00000000E+00  0.00000000E+00  0.00000000E+00
  0.00000000E+00  0.00000000E+00  0.00000000E+00
  0.00000000E+00  0.00000000E+00  0.00000000E+00
  0.00000000E+00  0.00000000E+00  0.00000000E+00
  0.00000000E+00  0.00000000E+00  0.00000000E+00
  0.00000000E+00  0.00000000E+00  0.00000000E+00
  0.00000000E+00  0.00000000E+00  0.00000000E+00
  0.00000000E+00  0.00000000E+00  0.00000000E+00
  0.00000000E+00  0.00000000E+00  0.00000000E+00
  0.00000000E+00  0.00000000E+00  0.00000000E+00
  0.00000000E+00  0.00000000E+00  0.00000000E+00
  0.00000000E+00  0.00000000E+00  0.00000000E+00
  0.00000000E+00  0.00000000E+00  0.00000000E+00
  0.00000000E+00  0.00000000E+00  0.00000000E+00
  0.00000000E+00  0.00000000E+00  0.00000000E+00
  0.00000000E+00  0.00000000E+00  0.00000000E+00
  0.00000000E+00  0.00000000E+00  0.00000000E+00
  0.00000000E+00  0.00000000E+00  0.00000000E+00
  0.00000000E+00  0.00000000E+00  0.00000000E+00
  0.00000000E+00  0.00000000E+00  0.00000000E+00
  0.00000000E+00  0.00000000E+00  0.00000000E+00
  0.00000000E+00  0.00000000E+00  0.00000000E+00
  0.00000000E+00  0.00000000E+00  0.00000000E+00
  0.00000000E+00  0.00000000E+00  0.00000000E+00
  0.00000000E+00  0.00000000E+00  0.00000000E+00
  0.00000000E+00  0.00000000E+00  0.00000000E+00
  0.00000000E+00  0.00000000E+00  0.00000000E+00
  0.00000000E+00  0.00000000E+00  0.00000000E+00
  0.00000000E+00  0.00000000E+00  0.00000000E+00
  0.00000000E+00  0.00000000E+00  0.00000000E+00
  0.00000000E+00  0.00000000E+00  0.00000000E+00
  0.00000000E+00  0.00000000E+00  0.00000000E+00
  0.00000000E+00  0.00000000E+00  0.00000000E+00
  0.00000000E+00  0.00000000E+00  0.00000000E+00
  0.00000000E+00  0.00000000E+00  0.00000000E+00
  0.00000000E+00  0.00000000E+00  0.00000000E+00
  0.00000000E+00  0.00000000E+00  0.00000000E+00
  0.00000000E+00  0.00000000E+00  0.00000000E+00
  0.00000000E+00  0.00000000E+00  0.00000000E+00
  0.00000000E+00  0.00000000E+00  0.00000000E+00
  0.00000000E+00  0.00000000E+00  0.00000000E+00
  0.00000000E+00  0.00000000E+00  0.00000000E+00
  0.00000000E+00  0.00000000E+00  0.00000000E+00
  0.00000000E+00  0.00000000E+00  0.00000000E+00
  0.00000000E+00  0.00000000E+00  0.00000000E+00
  0.00000000E+00  0.00000000E+00  0.00000000E+00
  0.00000000E+00  0.00000000E+00  0.00000000E+00
  0.00000000E+00  0.00000000E+00  0.00000000E+00
  0.00000000E+00  0.00000000E+00  0.00000000E+00
  0.00000000E+00  0.00000000E+00  0.00000000E+00
  0.00000000E+00  0.00000000E+00  0.00000000E+00
  0.00000000E+00  0.00000000E+00  0.00000000E+00
  0.00000000E+00  0.00000000E+00  0.00000000E+00
  0.00000000E+00  0.00000000E+00  0.00000000E+00
  0.00000000E+00  0.00000000E+00  0.00000000E+00
  0.00000000E+00  0.00000000E+00  0.00000000E+00
  0.00000000E+00  0.00000000E+00  0.00000000E+00
  0.00000000E+00  0.00000000E+00  0.00000000E+00
  0.00000000E+00  0.00000000E+00  0.00000000E+00
  0.00000000E+00  0.00000000E+00  0.00000000E+00
  0.00000000E+00  0.00000000E+00  0.00000000E+00
  0.00000000E+00  0.00000000E+00  0.00000000E+00
  0.00000000E+00  0.00000000E+00  0.00000000E+00
  0.00000000E+00  0.00000000E+00  0.00000000E+00
  0.00000000E+00  0.00000000E+00  0.00000000E+00
  0.00000000E+00  0.00000000E+00  0.00000000E+00
  0.00000000E+00  0.00000000E+00  0.00000000E+00
  0.00000000E+00  0.00000000E+00  0.00000000E+00
  0.00000000E+00  0.00000000E+00  0.00000000E+00
  0.00000000E+00  0.00000000E+00  0.00000000E+00
  0.00000000E+00  0.00000000E+00  0.00000000E+00
  0.00000000E+00  0.00000000E+00  0.00000000E+00
  0.00000000E+00  0.00000000E+00  0.00000000E+00
  0.00000000E+00  0.00000000E+00  0.00000000E+00
  0.00000000E+00  0.00000000E+00  0.00000000E+00
  0.00000000E+00  0.00000000E+00  0.00000000E+00
  0.00000000E+00  0.00000000E+00  0.00000000E+00
  0.00000000E+00  0.00000000E+00  0.00000000E+00
  0.00000000E+00  0.00000000E+00  0.00000000E+00
  0.00000000E+00  0.00000000E+00  0.00000000E+00
  0.00000000E+00  0.00000000E+00  0.00000000E+00
  0.00000000E+00  0.00000000E+00  0.00000000E+00
  0.00000000E+00  0.00000000E+00  0.00000000E+00
  0.00000000E+00  0.00000000E+00  0.00000000E+00
  0.00000000E+00  0.00000000E+00  0.00000000E+00
  0.00000000E+00  0.00000000E+00  0.00000000E+00
  0.00000000E+00  0.00000000E+00  0.00000000E+00
  0.00000000E+00  0.00000000E+00  0.00000000E+00
  0.00000000E+00  0.00000000E+00  0.00000000E+00
  0.00000000E+00  0.00000000E+00  0.00000000E+00
  0.00000000E+00  0.00000000E+00  0.00000000E+00
