supercell of natacl6_p21c.cif           
   1.00000000000000     
    12.8086700406632197    0.0000004227264436   -0.0315492974735766
     0.0000004651105324   13.6960863482870359   -0.0000019106395650
    -0.3327533513840475   -0.0000026420200669   18.8435734257652570
   Na   Ta   Cl
    17    15    96
Direct
  0.3133798218110186  0.1359914665637802  0.6717901380731774
  0.1180187433173998  0.3256292584589247  0.7222796386159374
  0.1103031025250232  0.4046437427349545  0.2561714083644091
  0.3968528275987708  0.1552893670349960  0.2532108776089146
  0.9415780101723854  0.1065186008844137  0.7418104173283524
  0.6085912462534466  0.3328995689853542  0.7673309527743584
  0.6079973052676380  0.4039441743573775  0.2557324474720986
  0.8946975684659506  0.1553524277753553  0.2469518267990978
  0.3904836998350518  0.5994328890545546  0.7508469165481557
  0.1043596732355425  0.8649396966254841  0.7448253319667231
  0.1140204236532867  0.9012402773059591  0.2541285626462368
  0.3995387035799425  0.6472525257324975  0.2501151571308924
  0.9017944879859670  0.5946919369522163  0.7499218580332041
  0.6002119228050518  0.8532323083771942  0.7518656340386940
  0.6060495477563350  0.9032356248120621  0.2516620137922985
  0.8956001084537490  0.6525442759003255  0.2489703667704077
  0.0863705415726912  0.1487181015890187  0.6071771182334018
  0.3704663528626355  0.3929094036623368  0.8886460514929055
  0.3752607635005134  0.3559709604570784  0.3881141523536442
  0.1301359049479487  0.1074651973743670  0.1157216543001383
  0.6313153372525449  0.1430772458162650  0.6160064440290896
  0.8724401244016633  0.3938671362228447  0.8877214252297208
  0.8771968776465897  0.3541426083005348  0.3879787877147223
  0.6273655607639341  0.1078381262337444  0.1166344773418260
  0.1265039881191754  0.6445384750119132  0.6155547676520499
  0.3730589179749941  0.8993795460540852  0.8825096671515453
  0.3753988549502338  0.8496487423924393  0.3808987093280365
  0.1299166782770413  0.6071731068707180  0.1148852898855424
  0.6290853285984994  0.6419165830544031  0.6175974712366710
  0.8675668407247557  0.8919451897113646  0.8870497019301311
  0.8719227084213941  0.8568107946594665  0.3845311373881160
  0.6303047329598428  0.6058818673040278  0.1148187168417962
  0.1641201023543672  0.1455707924664793  0.7643989915597942
  0.3066606671662271  0.4142125194586228  0.7672322186737546
  0.3158513152118232  0.3437940577278695  0.2600860064294892
  0.1920293565965991  0.0913280828684293  0.2412722639122933
  0.2586623271677766  0.0379427829150316  0.5520795777865715
  0.2210759610062780  0.3087980734935485  0.9186706883876354
  0.2251799158701715  0.4465472496169767  0.4085898715284202
  0.2793390415240395  0.1979544483621538  0.0928662493947883
  0.0398523381016673  0.4987591917534928  0.6545537874525778
  0.4521210344123077  0.2458683675046487  0.8495956595611034
  0.4629673660046620  0.9990679308210844  0.3446698652574440
  0.0417931749438409  0.2540354939971294  0.1563926989276254
  0.0954712705997451  0.0990547268425885  0.4740663497972832
  0.4502723400569124  0.3762122963333496  0.0001294350794296
  0.4443279300724541  0.3754967930720312  0.4993305184426404
  0.0565181649359801  0.1272959288689179  0.0050862312078550
  0.4892621518178615  0.2433964796099559  0.6613207298960759
  0.0260875095295248  0.4754012812940971  0.8451572448868205
  0.0266997556762547  0.2643235916540334  0.3444923131241495
  0.4743528198967866  0.0186689961311757  0.1564089753617282
  0.2302946631371086  0.2969375849355771  0.6061362316723375
  0.2936055164709614  0.0434562665446094  0.9147426219339252
  0.2990822060840372  0.2068387673355687  0.4078731757749310
  0.2084850587750395  0.4574140289932345  0.0924388856424301
  0.7044750430696709  0.1539793400809728  0.7365044759408121
  0.8030205401808601  0.4140389392232180  0.7666691142591304
  0.8120937826358059  0.3417928877711134  0.2611682294478825
  0.6890394798764632  0.0921743699749911  0.2422054287991457
  0.7723699977269192  0.0487530069067574  0.5842175546362682
  0.7160172334475376  0.3126402203785901  0.9164714677138406
  0.7284247235909405  0.4456980662951295  0.4119303705176804
  0.7778880634065217  0.1965202284686995  0.0933008249164047
  0.5413816731365984  0.4978906619550685  0.6590120521624669
  0.9475770867339719  0.2436672145235761  0.8550248260571394
  0.9578613503485371  0.0008806379449879  0.3407575220080048
  0.5402135800102528  0.2546028364909532  0.1569549154731362
  0.5447620054606261  0.1249046770740136  0.5066770331421111
  0.9446201379409942  0.3776655237516735  0.0014503056144832
  0.9532011862554697  0.3700493526099109  0.4973549188064226
  0.5544251071244446  0.1273103961900262  0.0057385598721496
  0.9421745366118088  0.2620837115658503  0.6603186874993838
  0.5244554717270873  0.4835912414660513  0.8478825959178451
  0.5295162056893119  0.2669578260312235  0.3473947112133118
  0.9782438463755625  0.0166428230918783  0.1555117483836668
  0.7068911551205019  0.2899952243612489  0.5831239634370391
  0.7887630618208163  0.0390687976066673  0.9182531810651327
  0.7962334331318530  0.2054414244229932  0.4096967802506484
  0.7095766187112034  0.4565454225446572  0.0924094671115654
  0.1854878799907951  0.6662819072329640  0.7409483672085884
  0.3150192228694380  0.9164174322375374  0.7601603283075775
  0.3212138303931837  0.8352838806029936  0.2527195092813557
  0.1918103103791609  0.5927634618402351  0.2405780516359073
  0.2778384881422369  0.5551168682403258  0.5952552334903984
  0.2244555529986272  0.8050107031204305  0.9061909335783156
  0.2213530363118394  0.9326151331370482  0.3963338279475721
  0.2791270802752805  0.6963282697096460  0.0903572368848131
  0.0107235474288601  0.9753057851798843  0.6528777739915483
  0.4622466531509417  0.7488713000169653  0.8437839500433100
  0.4671584576283081  0.5022717942433133  0.3473482836428943
  0.0419415389501339  0.7538764075118607  0.1547407606612907
  0.0597384714802445  0.6235359890394037  0.5012619353137779
  0.4448494481931462  0.8711175552261778  0.9958854519438489
  0.4402243844584248  0.8699498384569537  0.4935862579992261
  0.0560730833759493  0.6244417037216365  0.0039833442771311
  0.4761876341634590  0.7339072203760608  0.6547496981118428
  0.0213456067625870  0.9805139821490059  0.8554907415887314
  0.0233482766264217  0.7643731502833830  0.3432011093195584
  0.4780364349669028  0.5152776456062114  0.1551310865673301
  0.2034011128051176  0.7941645759699227  0.5898439960668824
  0.2979836231073421  0.5458921219285529  0.9166658178725200
  0.2989464735896803  0.6981422913515161  0.4027112179270773
  0.2089526513914421  0.9586026539660040  0.0911821159358652
  0.6932188014235123  0.6626092276919309  0.7406413911567213
  0.8054572058319565  0.9123611735327444  0.7659577888656699
  0.8080160431404195  0.8377566701199939  0.2581568729331423
  0.6906641048548323  0.5910595851119851  0.2409772528486300
  0.7775016960912140  0.5513013112560117  0.5922880270486459
  0.7191308297562315  0.7984602060336670  0.9118410148382168
  0.7217655821744913  0.9459955180038335  0.4076338845481118
  0.7800616856882314  0.6954721496921223  0.0921854068844326
  0.5323681127452602  0.0022198021554232  0.6560794273454036
  0.9585719057282915  0.7467820162814576  0.8458153756261311
  0.9640000231162276  0.5018384115327450  0.3464429034600798
  0.5413085375648166  0.7520711043160375  0.1537704012150201
  0.5553880695449323  0.6215503338214745  0.5053277808869083
  0.9383455412296797  0.8666548389352329  0.0007158839029131
  0.9473372486310581  0.8769560824478120  0.4935538679103431
  0.5580321852699583  0.6237806168143294  0.0036901086580485
  0.9707765553101950  0.7295984555930275  0.6512690996245709
  0.5272310980836821  0.9865169115763877  0.8494965978523155
  0.5313484434088949  0.7621663395155807  0.3433183540859090
  0.9779987126013552  0.5171253397935729  0.1564496352611542
  0.7064612627096736  0.7912680037552420  0.5897522453763671
  0.8005437828720332  0.5475201608596265  0.9155163402379216
  0.7935271249612867  0.7067563359740845  0.4089244684830575
  0.7049701614227928  0.9579621610314817  0.0934025171718034
 
  0.00000000E+00  0.00000000E+00  0.00000000E+00
  0.00000000E+00  0.00000000E+00  0.00000000E+00
  0.00000000E+00  0.00000000E+00  0.00000000E+00
  0.00000000E+00  0.00000000E+00  0.00000000E+00
  0.00000000E+00  0.00000000E+00  0.00000000E+00
  0.00000000E+00  0.00000000E+00  0.00000000E+00
  0.00000000E+00  0.00000000E+00  0.00000000E+00
  0.00000000E+00  0.00000000E+00  0.00000000E+00
  0.00000000E+00  0.00000000E+00  0.00000000E+00
  0.00000000E+00  0.00000000E+00  0.00000000E+00
  0.00000000E+00  0.00000000E+00  0.00000000E+00
  0.00000000E+00  0.00000000E+00  0.00000000E+00
  0.00000000E+00  0.00000000E+00  0.00000000E+00
  0.00000000E+00  0.00000000E+00  0.00000000E+00
  0.00000000E+00  0.00000000E+00  0.00000000E+00
  0.00000000E+00  0.00000000E+00  0.00000000E+00
  0.00000000E+00  0.00000000E+00  0.00000000E+00
  0.00000000E+00  0.00000000E+00  0.00000000E+00
  0.00000000E+00  0.00000000E+00  0.00000000E+00
  0.00000000E+00  0.00000000E+00  0.00000000E+00
  0.00000000E+00  0.00000000E+00  0.00000000E+00
  0.00000000E+00  0.00000000E+00  0.00000000E+00
  0.00000000E+00  0.00000000E+00  0.00000000E+00
  0.00000000E+00  0.00000000E+00  0.00000000E+00
  0.00000000E+00  0.00000000E+00  0.00000000E+00
  0.00000000E+00  0.00000000E+00  0.00000000E+00
  0.00000000E+00  0.00000000E+00  0.00000000E+00
  0.00000000E+00  0.00000000E+00  0.00000000E+00
  0.00000000E+00  0.00000000E+00  0.00000000E+00
  0.00000000E+00  0.00000000E+00  0.00000000E+00
  0.00000000E+00  0.00000000E+00  0.00000000E+00
  0.00000000E+00  0.00000000E+00  0.00000000E+00
  0.00000000E+00  0.00000000E+00  0.00000000E+00
  0.00000000E+00  0.00000000E+00  0.00000000E+00
  0.00000000E+00  0.00000000E+00  0.00000000E+00
  0.00000000E+00  0.00000000E+00  0.00000000E+00
  0.00000000E+00  0.00000000E+00  0.00000000E+00
  0.00000000E+00  0.00000000E+00  0.00000000E+00
  0.00000000E+00  0.00000000E+00  0.00000000E+00
  0.00000000E+00  0.00000000E+00  0.00000000E+00
  0.00000000E+00  0.00000000E+00  0.00000000E+00
  0.00000000E+00  0.00000000E+00  0.00000000E+00
  0.00000000E+00  0.00000000E+00  0.00000000E+00
  0.00000000E+00  0.00000000E+00  0.00000000E+00
  0.00000000E+00  0.00000000E+00  0.00000000E+00
  0.00000000E+00  0.00000000E+00  0.00000000E+00
  0.00000000E+00  0.00000000E+00  0.00000000E+00
  0.00000000E+00  0.00000000E+00  0.00000000E+00
  0.00000000E+00  0.00000000E+00  0.00000000E+00
  0.00000000E+00  0.00000000E+00  0.00000000E+00
  0.00000000E+00  0.00000000E+00  0.00000000E+00
  0.00000000E+00  0.00000000E+00  0.00000000E+00
  0.00000000E+00  0.00000000E+00  0.00000000E+00
  0.00000000E+00  0.00000000E+00  0.00000000E+00
  0.00000000E+00  0.00000000E+00  0.00000000E+00
  0.00000000E+00  0.00000000E+00  0.00000000E+00
  0.00000000E+00  0.00000000E+00  0.00000000E+00
  0.00000000E+00  0.00000000E+00  0.00000000E+00
  0.00000000E+00  0.00000000E+00  0.00000000E+00
  0.00000000E+00  0.00000000E+00  0.00000000E+00
  0.00000000E+00  0.00000000E+00  0.00000000E+00
  0.00000000E+00  0.00000000E+00  0.00000000E+00
  0.00000000E+00  0.00000000E+00  0.00000000E+00
  0.00000000E+00  0.00000000E+00  0.00000000E+00
  0.00000000E+00  0.00000000E+00  0.00000000E+00
  0.00000000E+00  0.00000000E+00  0.00000000E+00
  0.00000000E+00  0.00000000E+00  0.00000000E+00
  0.00000000E+00  0.00000000E+00  0.00000000E+00
  0.00000000E+00  0.00000000E+00  0.00000000E+00
  0.00000000E+00  0.00000000E+00  0.00000000E+00
  0.00000000E+00  0.00000000E+00  0.00000000E+00
  0.00000000E+00  0.00000000E+00  0.00000000E+00
  0.00000000E+00  0.00000000E+00  0.00000000E+00
  0.00000000E+00  0.00000000E+00  0.00000000E+00
  0.00000000E+00  0.00000000E+00  0.00000000E+00
  0.00000000E+00  0.00000000E+00  0.00000000E+00
  0.00000000E+00  0.00000000E+00  0.00000000E+00
  0.00000000E+00  0.00000000E+00  0.00000000E+00
  0.00000000E+00  0.00000000E+00  0.00000000E+00
  0.00000000E+00  0.00000000E+00  0.00000000E+00
  0.00000000E+00  0.00000000E+00  0.00000000E+00
  0.00000000E+00  0.00000000E+00  0.00000000E+00
  0.00000000E+00  0.00000000E+00  0.00000000E+00
  0.00000000E+00  0.00000000E+00  0.00000000E+00
  0.00000000E+00  0.00000000E+00  0.00000000E+00
  0.00000000E+00  0.00000000E+00  0.00000000E+00
  0.00000000E+00  0.00000000E+00  0.00000000E+00
  0.00000000E+00  0.00000000E+00  0.00000000E+00
  0.00000000E+00  0.00000000E+00  0.00000000E+00
  0.00000000E+00  0.00000000E+00  0.00000000E+00
  0.00000000E+00  0.00000000E+00  0.00000000E+00
  0.00000000E+00  0.00000000E+00  0.00000000E+00
  0.00000000E+00  0.00000000E+00  0.00000000E+00
  0.00000000E+00  0.00000000E+00  0.00000000E+00
  0.00000000E+00  0.00000000E+00  0.00000000E+00
  0.00000000E+00  0.00000000E+00  0.00000000E+00
  0.00000000E+00  0.00000000E+00  0.00000000E+00
  0.00000000E+00  0.00000000E+00  0.00000000E+00
  0.00000000E+00  0.00000000E+00  0.00000000E+00
  0.00000000E+00  0.00000000E+00  0.00000000E+00
  0.00000000E+00  0.00000000E+00  0.00000000E+00
  0.00000000E+00  0.00000000E+00  0.00000000E+00
  0.00000000E+00  0.00000000E+00  0.00000000E+00
  0.00000000E+00  0.00000000E+00  0.00000000E+00
  0.00000000E+00  0.00000000E+00  0.00000000E+00
  0.00000000E+00  0.00000000E+00  0.00000000E+00
  0.00000000E+00  0.00000000E+00  0.00000000E+00
  0.00000000E+00  0.00000000E+00  0.00000000E+00
  0.00000000E+00  0.00000000E+00  0.00000000E+00
  0.00000000E+00  0.00000000E+00  0.00000000E+00
  0.00000000E+00  0.00000000E+00  0.00000000E+00
  0.00000000E+00  0.00000000E+00  0.00000000E+00
  0.00000000E+00  0.00000000E+00  0.00000000E+00
  0.00000000E+00  0.00000000E+00  0.00000000E+00
  0.00000000E+00  0.00000000E+00  0.00000000E+00
  0.00000000E+00  0.00000000E+00  0.00000000E+00
  0.00000000E+00  0.00000000E+00  0.00000000E+00
  0.00000000E+00  0.00000000E+00  0.00000000E+00
  0.00000000E+00  0.00000000E+00  0.00000000E+00
  0.00000000E+00  0.00000000E+00  0.00000000E+00
  0.00000000E+00  0.00000000E+00  0.00000000E+00
  0.00000000E+00  0.00000000E+00  0.00000000E+00
  0.00000000E+00  0.00000000E+00  0.00000000E+00
  0.00000000E+00  0.00000000E+00  0.00000000E+00
  0.00000000E+00  0.00000000E+00  0.00000000E+00
  0.00000000E+00  0.00000000E+00  0.00000000E+00
  0.00000000E+00  0.00000000E+00  0.00000000E+00
  0.00000000E+00  0.00000000E+00  0.00000000E+00
