supercell of natacl6_p21c.cif           
   1.00000000000000     
    12.8086700406632197    0.0000004227264436   -0.0315492974735766
     0.0000004651105324   13.6960863482870359   -0.0000019106395650
    -0.3327533513840475   -0.0000026420200669   18.8435734257652570
   Na   Ta   Cl
    17    16    96
Direct
  0.3928599122898291  0.0959799536624573  0.7546328133845535
  0.1075540680909199  0.3491249873593674  0.7579265996466802
  0.0980294045057022  0.4055302865045434  0.2496964255952108
  0.3940705098647754  0.1536358241561544  0.2432230616497080
  0.8968702222251110  0.0953399131663417  0.7610650296424595
  0.6060260568867122  0.3495448462732256  0.7549097675933254
  0.6107263646107484  0.4037938700068011  0.2445785468952266
  0.8959808042262338  0.1538132485005264  0.2472283508801993
  0.3967126598471751  0.5936713619296086  0.7456312510241787
  0.1082558551713149  0.8373708664944033  0.7590651231706360
  0.1021707149147133  0.9065568267713147  0.2527267764713415
  0.3908227025968358  0.6636062993129812  0.2391050167491784
  0.8946280931287944  0.5931273987530261  0.7456235038915437
  0.6068729618392084  0.8407706689674654  0.7554602937245676
  0.6066071651581169  0.9072039630020754  0.2543403746748609
  0.8950142013023878  0.6558543302369912  0.2469526216331772
  0.3713749538853719  0.1933193837427680  0.5295817361213082
  0.1162064145579507  0.1370243049858004  0.6195564762697003
  0.3727703212801146  0.3926002192789824  0.8854474179987761
  0.3708663059529300  0.3681719336475098  0.3752781443106699
  0.1279121129498861  0.1082299672221083  0.1140930713117214
  0.6371558033333358  0.1373012882312068  0.6188299426182340
  0.8714378113914734  0.3937914195623762  0.8868467928381776
  0.8716308005497382  0.3585014338892378  0.3847170121977186
  0.6291361088880052  0.1074179702870666  0.1141555235139080
  0.1288329941329209  0.6394408504330329  0.6153058717477720
  0.3725129902007822  0.8907606875077647  0.8851930468028542
  0.3709429073392485  0.8606782076966653  0.3851929806525192
  0.1276108068954045  0.6094646726603372  0.1146233019635687
  0.6291481039141473  0.6409741754537066  0.6144814869122186
  0.8716869116734998  0.8895637306253263  0.8866046144324926
  0.8722455556090836  0.8574208596174628  0.3849525870609227
  0.6289091132964728  0.6097674971328999  0.1146796935237973
  0.1842889692773468  0.1558799893143998  0.7419002221458513
  0.3137126873348492  0.4048239754279450  0.7590374764064123
  0.3107745456097462  0.3501182226732880  0.2532374811630760
  0.1883747183726001  0.0947451972710951  0.2398310381349660
  0.2693603616747211  0.0448235568284119  0.5954222534790787
  0.2243990363612269  0.3002670178733453  0.9079370103720237
  0.2218827072703178  0.4542445471821068  0.4041559243527431
  0.2772700097776237  0.1987446301833629  0.0905715256039770
  0.0395192845568886  0.4924759688509752  0.6546680697494409
  0.4649053519909785  0.2466195717853097  0.8462000266579253
  0.4606142524646017  0.0080462182045409  0.3467224239072237
  0.0381509150891048  0.2547582782245783  0.1531604046573136
  0.0498384835465870  0.1201630341167075  0.5062015403021078
  0.4449283906958854  0.3744453813472717  0.9970212053818486
  0.4411181000698789  0.3786320863868085  0.4912057153155942
  0.0551252827810131  0.1261990275986946  0.0024911358065083
  0.4780946218018798  0.2290990654282155  0.6553655140623036
  0.0226480603413890  0.4859133041829935  0.8473800924409218
  0.0248287941181928  0.2681002633990630  0.3461771854212756
  0.4773628706974051  0.0157132378891518  0.1538189842636655
  0.2014590383883927  0.2861193048624671  0.5915477380090479
  0.2942201235613808  0.0409927329043640  0.9082193242200063
  0.2862624248329695  0.2156521542263334  0.3987515014398610
  0.2061556623188210  0.4601987202726150  0.0899666370335410
  0.6906567398992891  0.1556079063309710  0.7425375021803760
  0.8120445485261385  0.4054571706863115  0.7604687005474418
  0.8138510164968054  0.3432393794170281  0.2588713529428333
  0.6890617473353160  0.0949775330216625  0.2399773709244855
  0.7829078807568095  0.0472749935499479  0.5927610301847182
  0.7237624734742027  0.3005960884683532  0.9091529726975267
  0.7215753451595859  0.4478823494920903  0.4077349396578072
  0.7771266595807091  0.1993567317866294  0.0907334391678560
  0.5393138520853640  0.4935316377489016  0.6525851462950953
  0.9647585421865088  0.2481106571740526  0.8480876381174056
  0.9613075077539577  0.0049079660061153  0.3469141094689476
  0.5372752195019217  0.2537530272152324  0.1525940065809195
  0.5658261553800870  0.1211341204084562  0.5034914092801017
  0.9438491972458181  0.3758658922242546  0.9983373148646635
  0.9435367348067913  0.3756405405240031  0.4969855074197298
  0.5559752127547881  0.1247150227940992  0.0025315465529090
  0.9695864000817380  0.2304828210961034  0.6572311031145901
  0.5241401845240858  0.4849133166252599  0.8464259578579956
  0.5219222843568048  0.2723667469081335  0.3419743800148467
  0.9757157323902916  0.0175157997547331  0.1537596098305585
  0.7101153645935128  0.2881787290777211  0.5932420956695879
  0.7951581467842317  0.0410219206343783  0.9091601858255984
  0.7921769528296920  0.2090075810209768  0.4080753465563376
  0.7065024093189223  0.4592459073393087  0.0914677610516677
  0.1908425930972086  0.6522641620543652  0.7406840249242990
  0.3114159141482915  0.9062641634286948  0.7594925953234295
  0.3087157980829218  0.8485006487804156  0.2602727544682821
  0.1882928058733029  0.5933725252422164  0.2400276157248911
  0.2773814268488692  0.5484285189848137  0.5905122874536204
  0.2224971601692900  0.8015109823783106  0.9089713193429603
  0.2228314553445898  0.9524929508851727  0.4103850545531316
  0.2778221528587252  0.6994415596208654  0.0915274373581667
  0.0334934541975329  0.9909270718372483  0.6577825096960268
  0.4602447773544682  0.7439935023531348  0.8459320267497930
  0.4617340763277085  0.5117245337220098  0.3427478221404598
  0.0392095454308645  0.7558709908086811  0.1542860292841723
  0.0542034062064829  0.6223493955603914  0.5041671616715320
  0.4449236534987762  0.8734257862872781  0.9967636587651114
  0.4452191155951795  0.8781635909844070  0.4968877983268101
  0.0555275487281222  0.6286196615197284  0.0029311060120847
  0.4772769713914897  0.7320709084828891  0.6542190808882253
  0.0267320287650534  0.9783292723048689  0.8478964097319306
  0.0247793514379850  0.7673503902318259  0.3458128645698011
  0.4754351937157750  0.5197838104696544  0.1541237190069040
  0.2091553905386689  0.7879788909546619  0.5915921509689070
  0.2909825177951504  0.5402746849276170  0.9084683856260725
  0.2904779962115427  0.7126006963314637  0.4095406467753406
  0.2077346133143649  0.9594033669098749  0.0906150630164362
  0.6890798039537316  0.6537259279213856  0.7402103036237406
  0.8116484308427943  0.9064119501480974  0.7607910445538266
  0.8120199083445954  0.8443331353357522  0.2595730306575987
  0.6891043521903057  0.5945433040359518  0.2401705914175949
  0.7780933789056519  0.5503169462381621  0.5906567216224445
  0.7207865953146069  0.8021336741610199  0.9100720747679958
  0.7228338031555666  0.9478453558968383  0.4090259088498485
  0.7788657473416905  0.6981240488824199  0.0903639134400365
  0.5413407990990962  0.9947239906465697  0.6544732452299158
  0.9582444294596684  0.7424818346676290  0.8472024291732936
  0.9604291855051983  0.5053650518912249  0.3463901286471014
  0.5416295454848878  0.7573843066445463  0.1534663925421000
  0.5558895896522174  0.6242545052756796  0.5027374629006616
  0.9436237591849661  0.8721886458592820  0.9982729920823559
  0.9449149766119618  0.8743554061798520  0.4970589299014705
  0.5553345709388395  0.6271789914120518  0.0032087580531055
  0.9779287247980974  0.7312085204376260  0.6559099291524220
  0.5256391080030838  0.9809032548223868  0.8453995743677751
  0.5217218257168952  0.7694159588150100  0.3447786914468338
  0.9744425480093497  0.5192303343444564  0.1533893515745177
  0.7094998244548947  0.7897078510854527  0.5913568491438994
  0.7894941579930475  0.5412890393795848  0.9097577572612039
  0.7921878056884850  0.7086110701067057  0.4083036346795765
  0.7097961277878895  0.9591118493768818  0.0908913682086734
 
  0.00000000E+00  0.00000000E+00  0.00000000E+00
  0.00000000E+00  0.00000000E+00  0.00000000E+00
  0.00000000E+00  0.00000000E+00  0.00000000E+00
  0.00000000E+00  0.00000000E+00  0.00000000E+00
  0.00000000E+00  0.00000000E+00  0.00000000E+00
  0.00000000E+00  0.00000000E+00  0.00000000E+00
  0.00000000E+00  0.00000000E+00  0.00000000E+00
  0.00000000E+00  0.00000000E+00  0.00000000E+00
  0.00000000E+00  0.00000000E+00  0.00000000E+00
  0.00000000E+00  0.00000000E+00  0.00000000E+00
  0.00000000E+00  0.00000000E+00  0.00000000E+00
  0.00000000E+00  0.00000000E+00  0.00000000E+00
  0.00000000E+00  0.00000000E+00  0.00000000E+00
  0.00000000E+00  0.00000000E+00  0.00000000E+00
  0.00000000E+00  0.00000000E+00  0.00000000E+00
  0.00000000E+00  0.00000000E+00  0.00000000E+00
  0.00000000E+00  0.00000000E+00  0.00000000E+00
  0.00000000E+00  0.00000000E+00  0.00000000E+00
  0.00000000E+00  0.00000000E+00  0.00000000E+00
  0.00000000E+00  0.00000000E+00  0.00000000E+00
  0.00000000E+00  0.00000000E+00  0.00000000E+00
  0.00000000E+00  0.00000000E+00  0.00000000E+00
  0.00000000E+00  0.00000000E+00  0.00000000E+00
  0.00000000E+00  0.00000000E+00  0.00000000E+00
  0.00000000E+00  0.00000000E+00  0.00000000E+00
  0.00000000E+00  0.00000000E+00  0.00000000E+00
  0.00000000E+00  0.00000000E+00  0.00000000E+00
  0.00000000E+00  0.00000000E+00  0.00000000E+00
  0.00000000E+00  0.00000000E+00  0.00000000E+00
  0.00000000E+00  0.00000000E+00  0.00000000E+00
  0.00000000E+00  0.00000000E+00  0.00000000E+00
  0.00000000E+00  0.00000000E+00  0.00000000E+00
  0.00000000E+00  0.00000000E+00  0.00000000E+00
  0.00000000E+00  0.00000000E+00  0.00000000E+00
  0.00000000E+00  0.00000000E+00  0.00000000E+00
  0.00000000E+00  0.00000000E+00  0.00000000E+00
  0.00000000E+00  0.00000000E+00  0.00000000E+00
  0.00000000E+00  0.00000000E+00  0.00000000E+00
  0.00000000E+00  0.00000000E+00  0.00000000E+00
  0.00000000E+00  0.00000000E+00  0.00000000E+00
  0.00000000E+00  0.00000000E+00  0.00000000E+00
  0.00000000E+00  0.00000000E+00  0.00000000E+00
  0.00000000E+00  0.00000000E+00  0.00000000E+00
  0.00000000E+00  0.00000000E+00  0.00000000E+00
  0.00000000E+00  0.00000000E+00  0.00000000E+00
  0.00000000E+00  0.00000000E+00  0.00000000E+00
  0.00000000E+00  0.00000000E+00  0.00000000E+00
  0.00000000E+00  0.00000000E+00  0.00000000E+00
  0.00000000E+00  0.00000000E+00  0.00000000E+00
  0.00000000E+00  0.00000000E+00  0.00000000E+00
  0.00000000E+00  0.00000000E+00  0.00000000E+00
  0.00000000E+00  0.00000000E+00  0.00000000E+00
  0.00000000E+00  0.00000000E+00  0.00000000E+00
  0.00000000E+00  0.00000000E+00  0.00000000E+00
  0.00000000E+00  0.00000000E+00  0.00000000E+00
  0.00000000E+00  0.00000000E+00  0.00000000E+00
  0.00000000E+00  0.00000000E+00  0.00000000E+00
  0.00000000E+00  0.00000000E+00  0.00000000E+00
  0.00000000E+00  0.00000000E+00  0.00000000E+00
  0.00000000E+00  0.00000000E+00  0.00000000E+00
  0.00000000E+00  0.00000000E+00  0.00000000E+00
  0.00000000E+00  0.00000000E+00  0.00000000E+00
  0.00000000E+00  0.00000000E+00  0.00000000E+00
  0.00000000E+00  0.00000000E+00  0.00000000E+00
  0.00000000E+00  0.00000000E+00  0.00000000E+00
  0.00000000E+00  0.00000000E+00  0.00000000E+00
  0.00000000E+00  0.00000000E+00  0.00000000E+00
  0.00000000E+00  0.00000000E+00  0.00000000E+00
  0.00000000E+00  0.00000000E+00  0.00000000E+00
  0.00000000E+00  0.00000000E+00  0.00000000E+00
  0.00000000E+00  0.00000000E+00  0.00000000E+00
  0.00000000E+00  0.00000000E+00  0.00000000E+00
  0.00000000E+00  0.00000000E+00  0.00000000E+00
  0.00000000E+00  0.00000000E+00  0.00000000E+00
  0.00000000E+00  0.00000000E+00  0.00000000E+00
  0.00000000E+00  0.00000000E+00  0.00000000E+00
  0.00000000E+00  0.00000000E+00  0.00000000E+00
  0.00000000E+00  0.00000000E+00  0.00000000E+00
  0.00000000E+00  0.00000000E+00  0.00000000E+00
  0.00000000E+00  0.00000000E+00  0.00000000E+00
  0.00000000E+00  0.00000000E+00  0.00000000E+00
  0.00000000E+00  0.00000000E+00  0.00000000E+00
  0.00000000E+00  0.00000000E+00  0.00000000E+00
  0.00000000E+00  0.00000000E+00  0.00000000E+00
  0.00000000E+00  0.00000000E+00  0.00000000E+00
  0.00000000E+00  0.00000000E+00  0.00000000E+00
  0.00000000E+00  0.00000000E+00  0.00000000E+00
  0.00000000E+00  0.00000000E+00  0.00000000E+00
  0.00000000E+00  0.00000000E+00  0.00000000E+00
  0.00000000E+00  0.00000000E+00  0.00000000E+00
  0.00000000E+00  0.00000000E+00  0.00000000E+00
  0.00000000E+00  0.00000000E+00  0.00000000E+00
  0.00000000E+00  0.00000000E+00  0.00000000E+00
  0.00000000E+00  0.00000000E+00  0.00000000E+00
  0.00000000E+00  0.00000000E+00  0.00000000E+00
  0.00000000E+00  0.00000000E+00  0.00000000E+00
  0.00000000E+00  0.00000000E+00  0.00000000E+00
  0.00000000E+00  0.00000000E+00  0.00000000E+00
  0.00000000E+00  0.00000000E+00  0.00000000E+00
  0.00000000E+00  0.00000000E+00  0.00000000E+00
  0.00000000E+00  0.00000000E+00  0.00000000E+00
  0.00000000E+00  0.00000000E+00  0.00000000E+00
  0.00000000E+00  0.00000000E+00  0.00000000E+00
  0.00000000E+00  0.00000000E+00  0.00000000E+00
  0.00000000E+00  0.00000000E+00  0.00000000E+00
  0.00000000E+00  0.00000000E+00  0.00000000E+00
  0.00000000E+00  0.00000000E+00  0.00000000E+00
  0.00000000E+00  0.00000000E+00  0.00000000E+00
  0.00000000E+00  0.00000000E+00  0.00000000E+00
  0.00000000E+00  0.00000000E+00  0.00000000E+00
  0.00000000E+00  0.00000000E+00  0.00000000E+00
  0.00000000E+00  0.00000000E+00  0.00000000E+00
  0.00000000E+00  0.00000000E+00  0.00000000E+00
  0.00000000E+00  0.00000000E+00  0.00000000E+00
  0.00000000E+00  0.00000000E+00  0.00000000E+00
  0.00000000E+00  0.00000000E+00  0.00000000E+00
  0.00000000E+00  0.00000000E+00  0.00000000E+00
  0.00000000E+00  0.00000000E+00  0.00000000E+00
  0.00000000E+00  0.00000000E+00  0.00000000E+00
  0.00000000E+00  0.00000000E+00  0.00000000E+00
  0.00000000E+00  0.00000000E+00  0.00000000E+00
  0.00000000E+00  0.00000000E+00  0.00000000E+00
  0.00000000E+00  0.00000000E+00  0.00000000E+00
  0.00000000E+00  0.00000000E+00  0.00000000E+00
  0.00000000E+00  0.00000000E+00  0.00000000E+00
  0.00000000E+00  0.00000000E+00  0.00000000E+00
  0.00000000E+00  0.00000000E+00  0.00000000E+00
  0.00000000E+00  0.00000000E+00  0.00000000E+00
  0.00000000E+00  0.00000000E+00  0.00000000E+00
