supercell of natacl6_p21c.cif           
   1.00000000000000     
    12.8086700406632197    0.0000004227264436   -0.0315492974735766
     0.0000004651105324   13.6960863482870359   -0.0000019106395650
    -0.3327533513840475   -0.0000026420200669   18.8435734257652570
   Na   Ta   Cl
    17    16    96
Direct
  0.3901975541508449  0.0898602231857950  0.7380455031614872
  0.0975294244116185  0.3439687233909510  0.7492263881422616
  0.1064889202482036  0.4079178248614852  0.2562712020585636
  0.3949885541034277  0.1535478662811371  0.2478975495675826
  0.8951647003487295  0.0954733128813317  0.7469605722404182
  0.6099818635739922  0.3441083666826756  0.7474217918672750
  0.6060138100057699  0.4056131972615020  0.2524952480763645
  0.8975461716981954  0.1542044550498218  0.2543591364702067
  0.3903049227295412  0.5955584708254591  0.7352056371669420
  0.0991688352954938  0.8437991980049802  0.7494422405165651
  0.1081169332901553  0.8998114742182253  0.2575056105549507
  0.3971893037559511  0.6535992364889438  0.2450713391436068
  0.8950700300893999  0.5945831350305113  0.7464864258036314
  0.6085393255799119  0.8465647021203537  0.7498330996642295
  0.6047586608161950  0.8999696255925187  0.2525763814252500
  0.8954342200456935  0.6547973530343327  0.2457105410814435
  0.3767793877377272  0.1742435450508069  0.9783551176172978
  0.1273023972798057  0.1416267567326059  0.6133421995829096
  0.3718339973585358  0.3986263522543041  0.8806197579393853
  0.3729990608540845  0.3577947054737578  0.3841376166921577
  0.1239652655654808  0.1070060121194132  0.1194703159555246
  0.6288107742857960  0.1413731193617380  0.6133477920505186
  0.8730795740704878  0.3916582918627682  0.8846738625234778
  0.8712721230594624  0.3585988712765911  0.3854506893007184
  0.6375128598054758  0.1054046714402475  0.1185957521008589
  0.1267305204630560  0.6410382708339029  0.6134342897280476
  0.3695517376297772  0.8836417481553056  0.8801284597444337
  0.3730624685036261  0.8567042303452794  0.3837159071700782
  0.1289979273030681  0.6087439360754843  0.1145884177603946
  0.6297950964496479  0.6423529364839666  0.6131597001035942
  0.8720001066811562  0.8913535875840282  0.8836459115114721
  0.8711792944887051  0.8559306258768444  0.3855948185598237
  0.6300802734941087  0.6071366139758680  0.1134940607613828
  0.1879067851151177  0.1577357212328536  0.7393132317741120
  0.3066964380942139  0.4074686238675724  0.7587290817578918
  0.3111142625860168  0.3428186284585237  0.2589386396261659
  0.1865900455351763  0.0911972929373448  0.2432553391024612
  0.2773718536816361  0.0511997735484897  0.5907885214513513
  0.2242099872628884  0.3046847604941334  0.9104349512442127
  0.2236879430635170  0.4477265628689651  0.4083601733414710
  0.2767667059114913  0.2043881518023767  0.1013386382365411
  0.0378198877209144  0.4944381762983099  0.6526984218433682
  0.4566268674988692  0.2451937079049316  0.8441836685566031
  0.4631822347747345  0.0030023597443289  0.3435429792318132
  0.0373528900352582  0.2540999487378244  0.1571372837526539
  0.0559648950742400  0.1227626647714004  0.5015931875847954
  0.4478853787797661  0.3751516721853747  0.9931129698663526
  0.4472297875759708  0.3757284708215991  0.4953227608351725
  0.0608984134643364  0.1295277165305677  0.0054175286430223
  0.4760418798323229  0.2322663874945761  0.6534324229497130
  0.0259479321450016  0.4817633130620322  0.8454965011821898
  0.0254961616202110  0.2688685303825196  0.3471076582296533
  0.4794743300164228  0.0180658241726164  0.1507196733460390
  0.2066097495629222  0.2907793428619740  0.5896953825492020
  0.2791018506474288  0.0330136788394739  0.9023189012428858
  0.2945895268883163  0.2083132871088011  0.4083550101604985
  0.2088205316989615  0.4600367079025602  0.0896419959481563
  0.6883546987226410  0.1545781449871981  0.7394119306470230
  0.8141390991806219  0.4055648281937252  0.7586698424730045
  0.8114222166783591  0.3422471821800102  0.2597170331224135
  0.6895420707293169  0.0929011152474857  0.2430119118516103
  0.7779473747957653  0.0517076480247241  0.5894982581058699
  0.7226822724722339  0.3020160935981693  0.9072529151758957
  0.7210849810994020  0.4474007857871598  0.4086289291598106
  0.7853446459251927  0.1963225912455044  0.0944649088391145
  0.5390139736175854  0.4958087964406701  0.6527435248948521
  0.9624228103109971  0.2444919651296615  0.8463940804044086
  0.9626100612756261  0.0018573314961898  0.3458640773939692
  0.5432308688154350  0.2522683769453948  0.1492934668275652
  0.5555401472850932  0.1246000953173265  0.5018744633794583
  0.9446626511033358  0.3737711725480111  0.9967135298328529
  0.9432584664768910  0.3768010220972684  0.4972257358111705
  0.5764274780809231  0.1181083191015659  0.0000671732145960
  0.9741053851131412  0.2314073116067092  0.6522840683008440
  0.5240344097242584  0.4832934841459178  0.8415050460897575
  0.5250995197849448  0.2668701813492760  0.3432047696460288
  0.9750219524360517  0.0151214350808146  0.1546794175098682
  0.7077478792138550  0.2911346282647216  0.5909626668058721
  0.7941282545519641  0.0414858987610316  0.9067202922958728
  0.7936137324631716  0.2081994547983683  0.4087938970269960
  0.7095881002291691  0.4580903559352976  0.0896874398527530
  0.1863214327611331  0.6557214525310684  0.7395906664358876
  0.3083003522740597  0.8997466546499737  0.7560972596133197
  0.3136207346125133  0.8423121183901330  0.2577875741585558
  0.1909765095231890  0.5942977686349167  0.2395653300569194
  0.2773135837787208  0.5508825756653337  0.5910931464558047
  0.2212769238454371  0.7948285775190627  0.9064190152736060
  0.2239211568667088  0.9478553156955130  0.4067148666344877
  0.2779598832737378  0.6991160740002087  0.0897520087292278
  0.0385831930911991  0.9952886813772608  0.6530071772166721
  0.4614292435344041  0.7409019228445430  0.8437305991672588
  0.4615821638027739  0.5043150989232856  0.3445095838745971
  0.0405048408487190  0.7557459622301295  0.1540411175799434
  0.0557422244178625  0.6217527998297783  0.5016639561679241
  0.4409516692648836  0.8753537778477067  0.9930137306583475
  0.4457983187107573  0.8764500305601644  0.4951162056374727
  0.0541802878880375  0.6266505604928412  0.0033573257481478
  0.4778774839146962  0.7351691383705798  0.6522327650757163
  0.0249337980695472  0.9811713157684423  0.8445232471998807
  0.0228594983119095  0.7637496745279364  0.3464761988270482
  0.4775334372025952  0.5158168181403937  0.1522784273426865
  0.2064792812539835  0.7898822182367695  0.5898212744146107
  0.2928661510306370  0.5441581021766666  0.9091408858808734
  0.2924848314677178  0.7086312604183505  0.4079399880017291
  0.2116435958591367  0.9635343739890487  0.0915143643300524
  0.6892854460557984  0.6566470952796379  0.7389674442541647
  0.8129851798416539  0.9061091350716737  0.7578557240620114
  0.8111478422193485  0.8423380135221237  0.2597665567352436
  0.6895007858165485  0.5934406314272920  0.2389118362299314
  0.7777760262531075  0.5506751974939590  0.5899118249649931
  0.7210197266324201  0.8031519141455590  0.9070549594125978
  0.7229843354168892  0.9478691445282976  0.4086621401013772
  0.7793418856818377  0.6972291380187627  0.0897379673629501
  0.5395213024847578  0.9941139618330510  0.6516746887746763
  0.9600019756292966  0.7440165752171737  0.8452902384451946
  0.9593379883092723  0.5052714536044434  0.3459866414230035
  0.5398311235334603  0.7539179947313244  0.1515924313860566
  0.5555051051380175  0.6238341459479955  0.5021359326426733
  0.9442994021600910  0.8737058198950365  0.9956205312084876
  0.9447988392887652  0.8749304249626917  0.4968334925852673
  0.5573324246082763  0.6252273887377626  0.0014200993400095
  0.9739993373826437  0.7311935243034782  0.6522153949686782
  0.5169738863296232  0.9824565471843414  0.8425466014199401
  0.5249108598507419  0.7647244470930943  0.3450958299428493
  0.9777787703197163  0.5170753500933358  0.1545852808129453
  0.7098574141264464  0.7907492050809850  0.5892904921989270
  0.7934804436429985  0.5408533622904415  0.9076296889700828
  0.7906677429903155  0.7078287955222677  0.4094056266069188
  0.7152942897556969  0.9556683401729558  0.0958255001983943
 
  0.00000000E+00  0.00000000E+00  0.00000000E+00
  0.00000000E+00  0.00000000E+00  0.00000000E+00
  0.00000000E+00  0.00000000E+00  0.00000000E+00
  0.00000000E+00  0.00000000E+00  0.00000000E+00
  0.00000000E+00  0.00000000E+00  0.00000000E+00
  0.00000000E+00  0.00000000E+00  0.00000000E+00
  0.00000000E+00  0.00000000E+00  0.00000000E+00
  0.00000000E+00  0.00000000E+00  0.00000000E+00
  0.00000000E+00  0.00000000E+00  0.00000000E+00
  0.00000000E+00  0.00000000E+00  0.00000000E+00
  0.00000000E+00  0.00000000E+00  0.00000000E+00
  0.00000000E+00  0.00000000E+00  0.00000000E+00
  0.00000000E+00  0.00000000E+00  0.00000000E+00
  0.00000000E+00  0.00000000E+00  0.00000000E+00
  0.00000000E+00  0.00000000E+00  0.00000000E+00
  0.00000000E+00  0.00000000E+00  0.00000000E+00
  0.00000000E+00  0.00000000E+00  0.00000000E+00
  0.00000000E+00  0.00000000E+00  0.00000000E+00
  0.00000000E+00  0.00000000E+00  0.00000000E+00
  0.00000000E+00  0.00000000E+00  0.00000000E+00
  0.00000000E+00  0.00000000E+00  0.00000000E+00
  0.00000000E+00  0.00000000E+00  0.00000000E+00
  0.00000000E+00  0.00000000E+00  0.00000000E+00
  0.00000000E+00  0.00000000E+00  0.00000000E+00
  0.00000000E+00  0.00000000E+00  0.00000000E+00
  0.00000000E+00  0.00000000E+00  0.00000000E+00
  0.00000000E+00  0.00000000E+00  0.00000000E+00
  0.00000000E+00  0.00000000E+00  0.00000000E+00
  0.00000000E+00  0.00000000E+00  0.00000000E+00
  0.00000000E+00  0.00000000E+00  0.00000000E+00
  0.00000000E+00  0.00000000E+00  0.00000000E+00
  0.00000000E+00  0.00000000E+00  0.00000000E+00
  0.00000000E+00  0.00000000E+00  0.00000000E+00
  0.00000000E+00  0.00000000E+00  0.00000000E+00
  0.00000000E+00  0.00000000E+00  0.00000000E+00
  0.00000000E+00  0.00000000E+00  0.00000000E+00
  0.00000000E+00  0.00000000E+00  0.00000000E+00
  0.00000000E+00  0.00000000E+00  0.00000000E+00
  0.00000000E+00  0.00000000E+00  0.00000000E+00
  0.00000000E+00  0.00000000E+00  0.00000000E+00
  0.00000000E+00  0.00000000E+00  0.00000000E+00
  0.00000000E+00  0.00000000E+00  0.00000000E+00
  0.00000000E+00  0.00000000E+00  0.00000000E+00
  0.00000000E+00  0.00000000E+00  0.00000000E+00
  0.00000000E+00  0.00000000E+00  0.00000000E+00
  0.00000000E+00  0.00000000E+00  0.00000000E+00
  0.00000000E+00  0.00000000E+00  0.00000000E+00
  0.00000000E+00  0.00000000E+00  0.00000000E+00
  0.00000000E+00  0.00000000E+00  0.00000000E+00
  0.00000000E+00  0.00000000E+00  0.00000000E+00
  0.00000000E+00  0.00000000E+00  0.00000000E+00
  0.00000000E+00  0.00000000E+00  0.00000000E+00
  0.00000000E+00  0.00000000E+00  0.00000000E+00
  0.00000000E+00  0.00000000E+00  0.00000000E+00
  0.00000000E+00  0.00000000E+00  0.00000000E+00
  0.00000000E+00  0.00000000E+00  0.00000000E+00
  0.00000000E+00  0.00000000E+00  0.00000000E+00
  0.00000000E+00  0.00000000E+00  0.00000000E+00
  0.00000000E+00  0.00000000E+00  0.00000000E+00
  0.00000000E+00  0.00000000E+00  0.00000000E+00
  0.00000000E+00  0.00000000E+00  0.00000000E+00
  0.00000000E+00  0.00000000E+00  0.00000000E+00
  0.00000000E+00  0.00000000E+00  0.00000000E+00
  0.00000000E+00  0.00000000E+00  0.00000000E+00
  0.00000000E+00  0.00000000E+00  0.00000000E+00
  0.00000000E+00  0.00000000E+00  0.00000000E+00
  0.00000000E+00  0.00000000E+00  0.00000000E+00
  0.00000000E+00  0.00000000E+00  0.00000000E+00
  0.00000000E+00  0.00000000E+00  0.00000000E+00
  0.00000000E+00  0.00000000E+00  0.00000000E+00
  0.00000000E+00  0.00000000E+00  0.00000000E+00
  0.00000000E+00  0.00000000E+00  0.00000000E+00
  0.00000000E+00  0.00000000E+00  0.00000000E+00
  0.00000000E+00  0.00000000E+00  0.00000000E+00
  0.00000000E+00  0.00000000E+00  0.00000000E+00
  0.00000000E+00  0.00000000E+00  0.00000000E+00
  0.00000000E+00  0.00000000E+00  0.00000000E+00
  0.00000000E+00  0.00000000E+00  0.00000000E+00
  0.00000000E+00  0.00000000E+00  0.00000000E+00
  0.00000000E+00  0.00000000E+00  0.00000000E+00
  0.00000000E+00  0.00000000E+00  0.00000000E+00
  0.00000000E+00  0.00000000E+00  0.00000000E+00
  0.00000000E+00  0.00000000E+00  0.00000000E+00
  0.00000000E+00  0.00000000E+00  0.00000000E+00
  0.00000000E+00  0.00000000E+00  0.00000000E+00
  0.00000000E+00  0.00000000E+00  0.00000000E+00
  0.00000000E+00  0.00000000E+00  0.00000000E+00
  0.00000000E+00  0.00000000E+00  0.00000000E+00
  0.00000000E+00  0.00000000E+00  0.00000000E+00
  0.00000000E+00  0.00000000E+00  0.00000000E+00
  0.00000000E+00  0.00000000E+00  0.00000000E+00
  0.00000000E+00  0.00000000E+00  0.00000000E+00
  0.00000000E+00  0.00000000E+00  0.00000000E+00
  0.00000000E+00  0.00000000E+00  0.00000000E+00
  0.00000000E+00  0.00000000E+00  0.00000000E+00
  0.00000000E+00  0.00000000E+00  0.00000000E+00
  0.00000000E+00  0.00000000E+00  0.00000000E+00
  0.00000000E+00  0.00000000E+00  0.00000000E+00
  0.00000000E+00  0.00000000E+00  0.00000000E+00
  0.00000000E+00  0.00000000E+00  0.00000000E+00
  0.00000000E+00  0.00000000E+00  0.00000000E+00
  0.00000000E+00  0.00000000E+00  0.00000000E+00
  0.00000000E+00  0.00000000E+00  0.00000000E+00
  0.00000000E+00  0.00000000E+00  0.00000000E+00
  0.00000000E+00  0.00000000E+00  0.00000000E+00
  0.00000000E+00  0.00000000E+00  0.00000000E+00
  0.00000000E+00  0.00000000E+00  0.00000000E+00
  0.00000000E+00  0.00000000E+00  0.00000000E+00
  0.00000000E+00  0.00000000E+00  0.00000000E+00
  0.00000000E+00  0.00000000E+00  0.00000000E+00
  0.00000000E+00  0.00000000E+00  0.00000000E+00
  0.00000000E+00  0.00000000E+00  0.00000000E+00
  0.00000000E+00  0.00000000E+00  0.00000000E+00
  0.00000000E+00  0.00000000E+00  0.00000000E+00
  0.00000000E+00  0.00000000E+00  0.00000000E+00
  0.00000000E+00  0.00000000E+00  0.00000000E+00
  0.00000000E+00  0.00000000E+00  0.00000000E+00
  0.00000000E+00  0.00000000E+00  0.00000000E+00
  0.00000000E+00  0.00000000E+00  0.00000000E+00
  0.00000000E+00  0.00000000E+00  0.00000000E+00
  0.00000000E+00  0.00000000E+00  0.00000000E+00
  0.00000000E+00  0.00000000E+00  0.00000000E+00
  0.00000000E+00  0.00000000E+00  0.00000000E+00
  0.00000000E+00  0.00000000E+00  0.00000000E+00
  0.00000000E+00  0.00000000E+00  0.00000000E+00
  0.00000000E+00  0.00000000E+00  0.00000000E+00
  0.00000000E+00  0.00000000E+00  0.00000000E+00
  0.00000000E+00  0.00000000E+00  0.00000000E+00
  0.00000000E+00  0.00000000E+00  0.00000000E+00
