supercell of natacl6_p21c.cif           
   1.00000000000000     
    12.8086700406632197    0.0000004227264436   -0.0315492974735766
     0.0000004651105324   13.6960863482870359   -0.0000019106395650
    -0.3327533513840475   -0.0000026420200669   18.8435734257652570
   Ta   Na   Cl
    17    15    96
Direct
  0.3914026812111331  0.0871637649114376  0.7285752884143832
  0.1363918707782261  0.1461404967241648  0.6204915068557000
  0.3662749883170235  0.3851688089574949  0.8794353671363382
  0.3723546538547851  0.3572845911033085  0.3853727476284661
  0.1268659926755689  0.1082591042282246  0.1162900996579239
  0.6344347941085715  0.1433925755758665  0.6165792125853145
  0.8719690327689023  0.3906828354503986  0.8855295642007022
  0.8718326027726135  0.3567133135113352  0.3866484228480616
  0.6287145487303647  0.1077968878806956  0.1152770392237628
  0.1299329831827336  0.6433649299608248  0.6140938508738500
  0.3633773628463643  0.8995049844048282  0.8861345964872811
  0.3721830345975263  0.8574783416988936  0.3850259471933839
  0.1283168006258464  0.6081014443939594  0.1151521182894797
  0.6277137382350162  0.6430484753269212  0.6144374763779297
  0.8696679608341569  0.8937718156641168  0.8861897068146121
  0.8721215072274475  0.8590888665659051  0.3861086225759180
  0.6270719552124859  0.6071580381735799  0.1133793421171490
  0.0969304803691884  0.3462552575167877  0.7507014254889484
  0.1048994885920251  0.4049382073129593  0.2554427449651513
  0.3954970536778788  0.1545254243819585  0.2484512696045584
  0.8896100404754463  0.0925645511874862  0.7340531817970231
  0.6161828077941820  0.3460923687510160  0.7407176555643815
  0.6055466116975836  0.4045033741784536  0.2541753991952831
  0.8950265432525555  0.1552299855012933  0.2492831001092810
  0.3989684769798885  0.5944551384339576  0.7464699964613857
  0.0930236372299618  0.8406845389248687  0.7548561677593142
  0.1050287843677538  0.9044476527951915  0.2543010800137324
  0.3962407924626348  0.6539705503101914  0.2474350496775131
  0.8943904073661528  0.5958196398531612  0.7468059904871538
  0.6121727362931750  0.8446585332843668  0.7526795709942320
  0.6055682375121165  0.9042309942402369  0.2535739388971336
  0.8947710378186784  0.6541446209347583  0.2491303733523296
  0.2125214150889363  0.1605709568882077  0.7500263264060578
  0.3042398332986593  0.4089737519796159  0.7571908421917470
  0.3110029967780079  0.3429463405906290  0.2597415888091845
  0.1889793472796626  0.0934774891983423  0.2409692654766644
  0.3020224644592773  0.0503500740020755  0.6091309982598361
  0.2149573523473265  0.3015489248881451  0.9067135909923749
  0.2234185499665529  0.4481162600813136  0.4092091699304632
  0.2762480108020995  0.1977706497141583  0.0909282151872333
  0.0409227465255242  0.4981718149827188  0.6548954211478417
  0.4421404160256301  0.2276518961823228  0.8331572310843072
  0.4617591822344380  0.0038519196751778  0.3459742723193955
  0.0388958028743289  0.2551038468901936  0.1551091709761891
  0.0754004740000553  0.1202158002231286  0.5047245706934476
  0.4473735137077810  0.3546059383241342  0.9871150676101834
  0.4465841718842398  0.3755440966658767  0.4965848309984366
  0.0523817364680355  0.1258430313896213  0.0048123292055564
  0.4679756576706779  0.2286192560169766  0.6607123776526080
  0.0248093107666278  0.4827087086561690  0.8473752405014139
  0.0238398711358698  0.2661025198190359  0.3467123234739304
  0.4756778148115686  0.0172857336821224  0.1542015139765454
  0.2189867461161299  0.2943554616047805  0.5964596479178965
  0.2807676375786201  0.0427179757832405  0.9155195231433737
  0.2931601297405209  0.2086791770793823  0.4091650716232280
  0.2082549930217610  0.4593348094863501  0.0904563395213884
  0.6875780783735479  0.1560276924712269  0.7445539943402437
  0.8163930479029275  0.4074465596246739  0.7594020704943887
  0.8107715091299212  0.3426852626639416  0.2604273455019523
  0.6886186515117316  0.0936889496196329  0.2403440338204135
  0.7876777077885535  0.0522983295128796  0.5939327466353745
  0.7214089978091351  0.3014883543776676  0.9077786839471642
  0.7232894850186256  0.4487914497071372  0.4093292967514657
  0.7776236979411095  0.1979720509809226  0.0909413375673367
  0.5355083143515529  0.4971452938353522  0.6523435057784681
  0.9591639205681446  0.2436188600360794  0.8466347851248344
  0.9614902754173045  0.0048956486171363  0.3465054739888558
  0.5387130184530449  0.2542949974877118  0.1526983712757115
  0.5514216498816324  0.1190305072349176  0.5081571707093175
  0.9438891258433983  0.3735419088602256  0.9976220813818202
  0.9452859099978994  0.3749239866937728  0.4977301930697067
  0.5573704513518578  0.1232347456827299  0.0024003076116372
  0.9809301802295707  0.2348376200938915  0.6566213184027845
  0.5236960798672641  0.4675344086794624  0.8404514991095624
  0.5246220036707712  0.2663770228611924  0.3456048226583022
  0.9750180392124008  0.0174230877924444  0.1558699159798991
  0.7086580679706884  0.2989358648810665  0.5970892195202069
  0.7881662936493186  0.0415061874191807  0.9092308376592726
  0.7915016063590983  0.2086875750800559  0.4103406468407087
  0.7071405527052832  0.4585731352384101  0.0894422234510586
  0.1937118966135998  0.6604621871031924  0.7399020143645458
  0.3000838636852947  0.9215839825215966  0.7585305630534691
  0.3110584309273037  0.8429550731938420  0.2595203476155561
  0.1898994050832954  0.5932405665971174  0.2400265232507053
  0.2781660878377608  0.5525627212571607  0.5899724750584312
  0.2200958495376852  0.8024815911838274  0.9073565813187798
  0.2235662491213120  0.9476603956756477  0.4092422472875441
  0.2774636334301448  0.6990832944175693  0.0908046580051618
  0.0549669821934771  0.9972744423475817  0.6635314482154584
  0.4565712998565061  0.7598210743668901  0.8400939387218358
  0.4616400521536974  0.5039555822588184  0.3454548329512690
  0.0389241367199915  0.7543791070682602  0.1542427955344863
  0.0546884162864245  0.6251345488630378  0.5034447010331107
  0.4510518753187043  0.8828373520316788  0.9919479341501045
  0.4458440107211388  0.8745974835562222  0.4965721857620622
  0.0560024046011662  0.6263381070773733  0.0030804247979646
  0.4757055777540273  0.7343014219341413  0.6543607743875697
  0.0220276863347237  0.9834289013270805  0.8484415490167194
  0.0242513173807737  0.7673855421193991  0.3462412482688393
  0.4751848852304903  0.5160212606357462  0.1526481592941451
  0.2086905933747119  0.7922860138582735  0.5896236864839963
  0.2984035128606735  0.5356625954262313  0.9107139326059226
  0.2928419105413127  0.7081089591798957  0.4085464031925738
  0.2062239881839076  0.9587323404887655  0.0919494103559728
  0.6869094356732717  0.6548969305031633  0.7410298755242550
  0.8141244771962590  0.9058236097664150  0.7596482770333211
  0.8111769236641919  0.8432020639603479  0.2601978920557713
  0.6878553939833338  0.5932023446868016  0.2386052416227002
  0.7768372748277059  0.5525383592453181  0.5921500609883665
  0.7176069328749506  0.8046014514534008  0.9072460090821579
  0.7226561683977195  0.9488143752950151  0.4093351230505604
  0.7760526441044249  0.6978173077773135  0.0895998446415192
  0.5342398121247456  0.9927662443693137  0.6633495082328338
  0.9571990582782135  0.7442170665254508  0.8487659948116502
  0.9615151601455025  0.5035871258499256  0.3463390792315053
  0.5377443935307795  0.7541589437103795  0.1520674270616169
  0.5561217812250163  0.6256342500114940  0.5025912809974784
  0.9403468493174287  0.8740189729255903  0.9982592154250440
  0.9452627770331716  0.8775059513027301  0.4974196042229480
  0.5537911947320211  0.6245491088059651  0.0011795982350975
  0.9769080764094511  0.7334663887272228  0.6545926437443939
  0.5035646250950236  0.0038681874337527  0.8332803165558431
  0.5244762935753258  0.7663881672524369  0.3449276276273565
  0.9762397253373294  0.5174971453999859  0.1543205478983012
  0.7073230316908976  0.7924891865150698  0.5922461044671721
  0.7908483722843229  0.5395650060461890  0.9089858522779650
  0.7929852533701336  0.7094631595610821  0.4096479165579652
  0.7081149710291754  0.9581938012606770  0.0921427312744711
 
  0.00000000E+00  0.00000000E+00  0.00000000E+00
  0.00000000E+00  0.00000000E+00  0.00000000E+00
  0.00000000E+00  0.00000000E+00  0.00000000E+00
  0.00000000E+00  0.00000000E+00  0.00000000E+00
  0.00000000E+00  0.00000000E+00  0.00000000E+00
  0.00000000E+00  0.00000000E+00  0.00000000E+00
  0.00000000E+00  0.00000000E+00  0.00000000E+00
  0.00000000E+00  0.00000000E+00  0.00000000E+00
  0.00000000E+00  0.00000000E+00  0.00000000E+00
  0.00000000E+00  0.00000000E+00  0.00000000E+00
  0.00000000E+00  0.00000000E+00  0.00000000E+00
  0.00000000E+00  0.00000000E+00  0.00000000E+00
  0.00000000E+00  0.00000000E+00  0.00000000E+00
  0.00000000E+00  0.00000000E+00  0.00000000E+00
  0.00000000E+00  0.00000000E+00  0.00000000E+00
  0.00000000E+00  0.00000000E+00  0.00000000E+00
  0.00000000E+00  0.00000000E+00  0.00000000E+00
  0.00000000E+00  0.00000000E+00  0.00000000E+00
  0.00000000E+00  0.00000000E+00  0.00000000E+00
  0.00000000E+00  0.00000000E+00  0.00000000E+00
  0.00000000E+00  0.00000000E+00  0.00000000E+00
  0.00000000E+00  0.00000000E+00  0.00000000E+00
  0.00000000E+00  0.00000000E+00  0.00000000E+00
  0.00000000E+00  0.00000000E+00  0.00000000E+00
  0.00000000E+00  0.00000000E+00  0.00000000E+00
  0.00000000E+00  0.00000000E+00  0.00000000E+00
  0.00000000E+00  0.00000000E+00  0.00000000E+00
  0.00000000E+00  0.00000000E+00  0.00000000E+00
  0.00000000E+00  0.00000000E+00  0.00000000E+00
  0.00000000E+00  0.00000000E+00  0.00000000E+00
  0.00000000E+00  0.00000000E+00  0.00000000E+00
  0.00000000E+00  0.00000000E+00  0.00000000E+00
  0.00000000E+00  0.00000000E+00  0.00000000E+00
  0.00000000E+00  0.00000000E+00  0.00000000E+00
  0.00000000E+00  0.00000000E+00  0.00000000E+00
  0.00000000E+00  0.00000000E+00  0.00000000E+00
  0.00000000E+00  0.00000000E+00  0.00000000E+00
  0.00000000E+00  0.00000000E+00  0.00000000E+00
  0.00000000E+00  0.00000000E+00  0.00000000E+00
  0.00000000E+00  0.00000000E+00  0.00000000E+00
  0.00000000E+00  0.00000000E+00  0.00000000E+00
  0.00000000E+00  0.00000000E+00  0.00000000E+00
  0.00000000E+00  0.00000000E+00  0.00000000E+00
  0.00000000E+00  0.00000000E+00  0.00000000E+00
  0.00000000E+00  0.00000000E+00  0.00000000E+00
  0.00000000E+00  0.00000000E+00  0.00000000E+00
  0.00000000E+00  0.00000000E+00  0.00000000E+00
  0.00000000E+00  0.00000000E+00  0.00000000E+00
  0.00000000E+00  0.00000000E+00  0.00000000E+00
  0.00000000E+00  0.00000000E+00  0.00000000E+00
  0.00000000E+00  0.00000000E+00  0.00000000E+00
  0.00000000E+00  0.00000000E+00  0.00000000E+00
  0.00000000E+00  0.00000000E+00  0.00000000E+00
  0.00000000E+00  0.00000000E+00  0.00000000E+00
  0.00000000E+00  0.00000000E+00  0.00000000E+00
  0.00000000E+00  0.00000000E+00  0.00000000E+00
  0.00000000E+00  0.00000000E+00  0.00000000E+00
  0.00000000E+00  0.00000000E+00  0.00000000E+00
  0.00000000E+00  0.00000000E+00  0.00000000E+00
  0.00000000E+00  0.00000000E+00  0.00000000E+00
  0.00000000E+00  0.00000000E+00  0.00000000E+00
  0.00000000E+00  0.00000000E+00  0.00000000E+00
  0.00000000E+00  0.00000000E+00  0.00000000E+00
  0.00000000E+00  0.00000000E+00  0.00000000E+00
  0.00000000E+00  0.00000000E+00  0.00000000E+00
  0.00000000E+00  0.00000000E+00  0.00000000E+00
  0.00000000E+00  0.00000000E+00  0.00000000E+00
  0.00000000E+00  0.00000000E+00  0.00000000E+00
  0.00000000E+00  0.00000000E+00  0.00000000E+00
  0.00000000E+00  0.00000000E+00  0.00000000E+00
  0.00000000E+00  0.00000000E+00  0.00000000E+00
  0.00000000E+00  0.00000000E+00  0.00000000E+00
  0.00000000E+00  0.00000000E+00  0.00000000E+00
  0.00000000E+00  0.00000000E+00  0.00000000E+00
  0.00000000E+00  0.00000000E+00  0.00000000E+00
  0.00000000E+00  0.00000000E+00  0.00000000E+00
  0.00000000E+00  0.00000000E+00  0.00000000E+00
  0.00000000E+00  0.00000000E+00  0.00000000E+00
  0.00000000E+00  0.00000000E+00  0.00000000E+00
  0.00000000E+00  0.00000000E+00  0.00000000E+00
  0.00000000E+00  0.00000000E+00  0.00000000E+00
  0.00000000E+00  0.00000000E+00  0.00000000E+00
  0.00000000E+00  0.00000000E+00  0.00000000E+00
  0.00000000E+00  0.00000000E+00  0.00000000E+00
  0.00000000E+00  0.00000000E+00  0.00000000E+00
  0.00000000E+00  0.00000000E+00  0.00000000E+00
  0.00000000E+00  0.00000000E+00  0.00000000E+00
  0.00000000E+00  0.00000000E+00  0.00000000E+00
  0.00000000E+00  0.00000000E+00  0.00000000E+00
  0.00000000E+00  0.00000000E+00  0.00000000E+00
  0.00000000E+00  0.00000000E+00  0.00000000E+00
  0.00000000E+00  0.00000000E+00  0.00000000E+00
  0.00000000E+00  0.00000000E+00  0.00000000E+00
  0.00000000E+00  0.00000000E+00  0.00000000E+00
  0.00000000E+00  0.00000000E+00  0.00000000E+00
  0.00000000E+00  0.00000000E+00  0.00000000E+00
  0.00000000E+00  0.00000000E+00  0.00000000E+00
  0.00000000E+00  0.00000000E+00  0.00000000E+00
  0.00000000E+00  0.00000000E+00  0.00000000E+00
  0.00000000E+00  0.00000000E+00  0.00000000E+00
  0.00000000E+00  0.00000000E+00  0.00000000E+00
  0.00000000E+00  0.00000000E+00  0.00000000E+00
  0.00000000E+00  0.00000000E+00  0.00000000E+00
  0.00000000E+00  0.00000000E+00  0.00000000E+00
  0.00000000E+00  0.00000000E+00  0.00000000E+00
  0.00000000E+00  0.00000000E+00  0.00000000E+00
  0.00000000E+00  0.00000000E+00  0.00000000E+00
  0.00000000E+00  0.00000000E+00  0.00000000E+00
  0.00000000E+00  0.00000000E+00  0.00000000E+00
  0.00000000E+00  0.00000000E+00  0.00000000E+00
  0.00000000E+00  0.00000000E+00  0.00000000E+00
  0.00000000E+00  0.00000000E+00  0.00000000E+00
  0.00000000E+00  0.00000000E+00  0.00000000E+00
  0.00000000E+00  0.00000000E+00  0.00000000E+00
  0.00000000E+00  0.00000000E+00  0.00000000E+00
  0.00000000E+00  0.00000000E+00  0.00000000E+00
  0.00000000E+00  0.00000000E+00  0.00000000E+00
  0.00000000E+00  0.00000000E+00  0.00000000E+00
  0.00000000E+00  0.00000000E+00  0.00000000E+00
  0.00000000E+00  0.00000000E+00  0.00000000E+00
  0.00000000E+00  0.00000000E+00  0.00000000E+00
  0.00000000E+00  0.00000000E+00  0.00000000E+00
  0.00000000E+00  0.00000000E+00  0.00000000E+00
  0.00000000E+00  0.00000000E+00  0.00000000E+00
  0.00000000E+00  0.00000000E+00  0.00000000E+00
  0.00000000E+00  0.00000000E+00  0.00000000E+00
  0.00000000E+00  0.00000000E+00  0.00000000E+00
  0.00000000E+00  0.00000000E+00  0.00000000E+00
