Na   Ta   Cl                            
   1.00000000000000     
    12.8086700406632001    0.0000004227264436   -0.0315492974735766
     0.0000004651105324   13.6960863482870003   -0.0000019106395650
    -0.3327533513840470   -0.0000026420200669   18.8435734257652996
   Na   Ta   Cl
    15    16    96
Direct
  0.3584135502315735  0.1516603490213237  0.7423641910658947
  0.1045663546572686  0.4054602313542723  0.2521212531121095
  0.3944563349138105  0.1547399294178017  0.2470156377589564
  0.8999133588828281  0.0965082762687267  0.7489979522927671
  0.6106622495071923  0.3449936657383167  0.7620828006520944
  0.6043168305351249  0.4052640384491796  0.2534548322931350
  0.8943905780440128  0.1548193306078962  0.2464157426602049
  0.3930365473881046  0.5931143459117391  0.7465967415383545
  0.1081674349023370  0.8491650597898417  0.7488020172964230
  0.1045868189934712  0.9044469472638861  0.2525520794332230
  0.3947750616832589  0.6552910687325263  0.2466809190523940
  0.8978039410884969  0.5915694076459588  0.7497497212459799
  0.5994694181795723  0.8504685112449987  0.7507404420952126
  0.6038149152284948  0.9048017005036273  0.2534431770559190
  0.8939843794281752  0.6547732295486085  0.2452013928869688
  0.1143939306428152  0.1433281540614388  0.6184717039895609
  0.3680781739438319  0.3956437155825283  0.8865755712450686
  0.3703109654665496  0.3583267040483354  0.3855787290896528
  0.1284297480237271  0.1075925029625617  0.1149078674124818
  0.6283416180558330  0.1424063854777844  0.6134215551976955
  0.8771638829733407  0.3910453920662610  0.8823178238128020
  0.8717857804126183  0.3580077257694615  0.3842825928383374
  0.6280956164434666  0.1082825157361365  0.1151031916397847
  0.1265283217612803  0.6388810835062783  0.6166265618505689
  0.3721703796408377  0.8996172154780921  0.8823771782149298
  0.3702556811994651  0.8579248402561402  0.3858692510224577
  0.1285037462873120  0.6077414478463681  0.1140882704792158
  0.6291362995822766  0.6423744426617315  0.6155427073380620
  0.8695787335821717  0.8899981667067345  0.8851025317695435
  0.8704980133327015  0.8567706946157116  0.3837774714666783
  0.6279378307447204  0.6083769152811346  0.1143508829186419
  0.1539424954467503  0.1531887374996399  0.7456893564062508
  0.3047750400903501  0.4035388252429936  0.7647776002388014
  0.3093453327661322  0.3420871544104108  0.2599721032537894
  0.1888172932241000  0.0922890950094640  0.2407863709827351
  0.2694362654125990  0.0536130557382825  0.6018531714522790
  0.2238086831758448  0.3042725439928129  0.9168607262464719
  0.2208569916923134  0.4486544217256723  0.4083802871403424
  0.2781022446582859  0.1976200894739429  0.0921614616930481
  0.0429285537712990  0.4946573809510449  0.6557164476697395
  0.4622737814903185  0.2481253008066952  0.8496366083669338
  0.4592279807645472  0.0042485777182963  0.3455232775439807
  0.0393399884561013  0.2540337727295428  0.1544847221322396
  0.0580016503983848  0.1224403708437758  0.5017475695449058
  0.4485617336781958  0.3787783576908690  0.9973313919686747
  0.4436356602556044  0.3787046251479592  0.4965792008929389
  0.0555010235267920  0.1259387103594206  0.0036307955191442
  0.4828758271366698  0.2451026342760709  0.6521956383593274
  0.0278654159003074  0.4768163658055491  0.8444861204010604
  0.0241124857788881  0.2675433214578610  0.3444092077023477
  0.4755667675077144  0.0174505543502323  0.1546549962427127
  0.2029060349173622  0.2886825831207034  0.5984856329891954
  0.2926225737353104  0.0470990128945647  0.9112355482628157
  0.2916636958165018  0.2096839109613036  0.4107692643391189
  0.2078616013985065  0.4585447581917729  0.0912060333435778
  0.6934691071816249  0.1580597495653834  0.7371450222996748
  0.8132754210735100  0.4057351646136096  0.7572034456133163
  0.8100215785680644  0.3428246807359311  0.2587752559229642
  0.6890701191697720  0.0924021889520417  0.2408254391730546
  0.7723860026688918  0.0470713232153012  0.5873274388709738
  0.7207529231410353  0.3067892010561549  0.9069191190770255
  0.7219114755898266  0.4475147559430268  0.4080777513528661
  0.7776652996208626  0.1982351815972161  0.0919326004031141
  0.5422750599814261  0.4963063808671859  0.6563013674941078
  0.9565341400271707  0.2414298465495427  0.8483790339630786
  0.9595341005901499  0.0034063503664879  0.3445941060698696
  0.5393002757197923  0.2545817998150192  0.1555230754300550
  0.5506416641945123  0.1246638531046853  0.5025193782849500
  0.9426198765849484  0.3745166394803834  0.9970211211817475
  0.9458487296069489  0.3778066951815044  0.4950731891394043
  0.5549830759321499  0.1278131649304676  0.0040980574513566
  0.9589196579534986  0.2297469202244144  0.6458929129572475
  0.5212190083592793  0.4873143016741163  0.8460370239009622
  0.5228840905820453  0.2677163227362546  0.3459883686176364
  0.9756753101284056  0.0169869671462580  0.1543454817114880
  0.7113158948053787  0.2883780395434711  0.5849530069262043
  0.7915148725532973  0.0392054440448725  0.9110388016348321
  0.7932334761409443  0.2087492583735177  0.4083658977658000
  0.7068637907093478  0.4597555549557346  0.0897809456241807
  0.1897094129151792  0.6592947669999180  0.7413233250417294
  0.3116332152263778  0.9203040018404229  0.7591698427017837
  0.3097522068029038  0.8423928375455815  0.2599764038414669
  0.1891942184251376  0.5931346427848412  0.2400153541584115
  0.2793876291758724  0.5532095195271742  0.5920081478790217
  0.2220867120174169  0.8080288394234384  0.9054239143828737
  0.2207381748279927  0.9479347889269796  0.4087351568566350
  0.2778689210052853  0.6979809890308181  0.0907739710141421
  0.0260656246518722  0.9907156829813023  0.6498869178891126
  0.4583587285061380  0.7508949454524525  0.8423864233711169
  0.4593006729672405  0.5046228785691468  0.3449056925457359
  0.0394591052542681  0.7542439027957260  0.1537821127171978
  0.0561723027708098  0.6231174491896446  0.5033687815717994
  0.4425246752604625  0.8755054502712940  0.9951842393474248
  0.4428439403577408  0.8772521634575070  0.4972090844612588
  0.0558290672780755  0.6256038640550590  0.0027057154280049
  0.4755920057744455  0.7327114531005359  0.6536776219411325
  0.0225393605302411  0.9798825642274952  0.8466621090871599
  0.0229395524797016  0.7662099024234299  0.3439918871908700
  0.4755997000098385  0.5179254057492267  0.1542830737200644
  0.2039532993296142  0.7907567252774989  0.5921498050300728
  0.2916298189354700  0.5454961558955227  0.9119719530680855
  0.2913868027608367  0.7088746836141510  0.4098086652654820
  0.2075719742208652  0.9585046404662289  0.0911208334364818
  0.6914850353713405  0.6609980472975269  0.7394128850591709
  0.8073955601496351  0.9079150995036696  0.7606712153453695
  0.8095509101774204  0.8424584497715131  0.2581034203415530
  0.6889235444492436  0.5925835450163927  0.2401598500186364
  0.7785214136835176  0.5529834260565705  0.5905190001714788
  0.7204572233277733  0.7997090008528676  0.9090394105076061
  0.7211611990806326  0.9471040204007252  0.4074450158550825
  0.7777550991841913  0.6985131146240200  0.0917312421242818
  0.5322218619782196  0.0036198977734727  0.6554747228947796
  0.9597244766640707  0.7451057243449487  0.8451482045866574
  0.9598370974492796  0.5047079837854084  0.3439790359820824
  0.5391672884684913  0.7548954476376026  0.1549230371021713
  0.5550653776677488  0.6223997058806243  0.5037904438757969
  0.9425635818323975  0.8710696484193798  0.9972020623426789
  0.9436372042489976  0.8737246816247441  0.4950369988987426
  0.5549867685106357  0.6286750246378771  0.0033139273571210
  0.9737275072440557  0.7302873313824402  0.6552144445021008
  0.5256647981276006  0.9874302062936418  0.8467545878349770
  0.5229393871677033  0.7673717586910581  0.3462755904926750
  0.9758400839284292  0.5173098460660008  0.1537305978928102
  0.7061814933022035  0.7920893991960510  0.5889907525848467
  0.7953157891586272  0.5415812140012807  0.9056187748618970
  0.7907575189762505  0.7077589432604795  0.4071564001851818
  0.7069184196538640  0.9592112877422678  0.0908209898296815
 
             NaN             NaN             NaN
             NaN             NaN             NaN
             NaN             NaN             NaN
             NaN             NaN             NaN
             NaN             NaN             NaN
             NaN             NaN             NaN
             NaN             NaN             NaN
             NaN             NaN             NaN
             NaN             NaN             NaN
             NaN             NaN             NaN
             NaN             NaN             NaN
             NaN             NaN             NaN
             NaN             NaN             NaN
             NaN             NaN             NaN
             NaN             NaN             NaN
             NaN             NaN             NaN
             NaN             NaN             NaN
             NaN             NaN             NaN
             NaN             NaN             NaN
             NaN             NaN             NaN
             NaN             NaN             NaN
             NaN             NaN             NaN
             NaN             NaN             NaN
             NaN             NaN             NaN
             NaN             NaN             NaN
             NaN             NaN             NaN
             NaN             NaN             NaN
             NaN             NaN             NaN
             NaN             NaN             NaN
             NaN             NaN             NaN
             NaN             NaN             NaN
             NaN             NaN             NaN
             NaN             NaN             NaN
             NaN             NaN             NaN
             NaN             NaN             NaN
             NaN             NaN             NaN
             NaN             NaN             NaN
             NaN             NaN             NaN
             NaN             NaN             NaN
             NaN             NaN             NaN
             NaN             NaN             NaN
             NaN             NaN             NaN
             NaN             NaN             NaN
             NaN             NaN             NaN
             NaN             NaN             NaN
             NaN             NaN             NaN
             NaN             NaN             NaN
             NaN             NaN             NaN
             NaN             NaN             NaN
             NaN             NaN             NaN
             NaN             NaN             NaN
             NaN             NaN             NaN
             NaN             NaN             NaN
             NaN             NaN             NaN
             NaN             NaN             NaN
             NaN             NaN             NaN
             NaN             NaN             NaN
             NaN             NaN             NaN
             NaN             NaN             NaN
             NaN             NaN             NaN
             NaN             NaN             NaN
             NaN             NaN             NaN
             NaN             NaN             NaN
             NaN             NaN             NaN
             NaN             NaN             NaN
             NaN             NaN             NaN
             NaN             NaN             NaN
             NaN             NaN             NaN
             NaN             NaN             NaN
             NaN             NaN             NaN
             NaN             NaN             NaN
             NaN             NaN             NaN
             NaN             NaN             NaN
             NaN             NaN             NaN
             NaN             NaN             NaN
             NaN             NaN             NaN
             NaN             NaN             NaN
             NaN             NaN             NaN
             NaN             NaN             NaN
             NaN             NaN             NaN
             NaN             NaN             NaN
             NaN             NaN             NaN
             NaN             NaN             NaN
             NaN             NaN             NaN
             NaN             NaN             NaN
             NaN             NaN             NaN
             NaN             NaN             NaN
             NaN             NaN             NaN
             NaN             NaN             NaN
             NaN             NaN             NaN
             NaN             NaN             NaN
             NaN             NaN             NaN
             NaN             NaN             NaN
             NaN             NaN             NaN
             NaN             NaN             NaN
             NaN             NaN             NaN
             NaN             NaN             NaN
             NaN             NaN             NaN
             NaN             NaN             NaN
             NaN             NaN             NaN
             NaN             NaN             NaN
             NaN             NaN             NaN
             NaN             NaN             NaN
             NaN             NaN             NaN
             NaN             NaN             NaN
             NaN             NaN             NaN
             NaN             NaN             NaN
             NaN             NaN             NaN
             NaN             NaN             NaN
             NaN             NaN             NaN
             NaN             NaN             NaN
             NaN             NaN             NaN
             NaN             NaN             NaN
             NaN             NaN             NaN
             NaN             NaN             NaN
             NaN             NaN             NaN
             NaN             NaN             NaN
             NaN             NaN             NaN
             NaN             NaN             NaN
             NaN             NaN             NaN
             NaN             NaN             NaN
             NaN             NaN             NaN
             NaN             NaN             NaN
             NaN             NaN             NaN
             NaN             NaN             NaN
             NaN             NaN             NaN
             NaN             NaN             NaN
