supercell of natacl6_p21c.cif           
   1.00000000000000     
    12.8086700406632197    0.0000004227264436   -0.0315492974735766
     0.0000004651105324   13.6960863482870359   -0.0000019106395650
    -0.3327533513840475   -0.0000026420200669   18.8435734257652570
   Ta   Na   Cl
    17    15    96
Direct
  0.3926150057568805  0.0900430265402434  0.7312062035830067
  0.1338993143638518  0.1470390729243718  0.6175061086895184
  0.3638868513583162  0.3854439422737244  0.8791707727228584
  0.3732163632671046  0.3574960604844080  0.3847080325654701
  0.1268051557374363  0.1080150679999150  0.1168147428001731
  0.6338664777840819  0.1434151499835039  0.6177128318814979
  0.8702460727883974  0.3912697583878924  0.8861579062651330
  0.8713140373085366  0.3573389612922426  0.3865334251533952
  0.6295082137875383  0.1077956931030215  0.1154913734739154
  0.1304328352989685  0.6432229552428765  0.6141967503544947
  0.3646462244020086  0.8999997005782205  0.8880265913573027
  0.3729402872422440  0.8566119588856509  0.3847390645301871
  0.1282592479662270  0.6081002680106167  0.1157171284790977
  0.6282988125309501  0.6428389299173105  0.6139021561667235
  0.8710314766866318  0.8934721549866467  0.8854542949875466
  0.8717413687615121  0.8585837279282771  0.3861525644194828
  0.6268872777206482  0.6070123872466269  0.1128649725038926
  0.0977933094026540  0.3517616524193627  0.7596208220003362
  0.1051148733828526  0.4045982222554159  0.2550641917572776
  0.3958244159592041  0.1536251253575998  0.2477520203046950
  0.8865030511143672  0.0946077222169706  0.7428593606732647
  0.6185631028828240  0.3498968435648919  0.7396882246528733
  0.6047862842304355  0.4042326154841120  0.2525942714252878
  0.8950916231749204  0.1546718592055569  0.2488724803995268
  0.3967104253294593  0.5933923966491861  0.7426025181948077
  0.0930559806111120  0.8396751516935339  0.7545504119684026
  0.1048695722350104  0.9042084460360584  0.2539890758713170
  0.3963711851634031  0.6539122058837421  0.2461009414169624
  0.8943948604984016  0.5963480945043145  0.7470069364608278
  0.6139184475846164  0.8422717508435156  0.7530891986308106
  0.6049407855283420  0.9037845755273253  0.2523520754125954
  0.8945748420357376  0.6541087837953654  0.2485003209750545
  0.2085162008810215  0.1619073352011426  0.7459827169731668
  0.3029329915794392  0.4081329820730275  0.7562082723224393
  0.3116942310989828  0.3428140498568268  0.2597425655260892
  0.1888620113852539  0.0935666394602563  0.2414374399884522
  0.2983207607169618  0.0556830269390858  0.6078939725659325
  0.2128612063475970  0.3004238703698547  0.9057303581599498
  0.2237403541824534  0.4473593236669444  0.4092840678429894
  0.2759934116302105  0.1976109628673228  0.0910759011425313
  0.0438086020677844  0.4965829607811116  0.6559118310479377
  0.4377531025645709  0.2237434372384897  0.8318212031415300
  0.4621626250970863  0.0034514898726172  0.3464768058577974
  0.0386720356265400  0.2548780911852759  0.1555022999765328
  0.0781083446754423  0.1167246255921697  0.5046779874339435
  0.4461924847667689  0.3517285665330476  0.9853205670615139
  0.4465226357764607  0.3748147822399446  0.4966503608676405
  0.0522826326056176  0.1253804035686272  0.0051390701749128
  0.4676737707646197  0.2302039093262493  0.6602295002708019
  0.0226451081125205  0.4861979805126850  0.8505183040969939
  0.0237666846909264  0.2659436231624355  0.3474664656217570
  0.4761569783334565  0.0170659874227823  0.1536028187030922
  0.2180674278087977  0.2915935733001902  0.5921687956727268
  0.2842653471478727  0.0442924158355140  0.9177179015735959
  0.2938271848310450  0.2081364544521875  0.4088707092035833
  0.2081250049515830  0.4594080025344169  0.0904554844468564
  0.6831874720675088  0.1567708043089837  0.7454939531940497
  0.8195838895511613  0.4066688742916611  0.7584516771702923
  0.8107771079752268  0.3426779354586316  0.2611610181269768
  0.6884914352075029  0.0936461223388463  0.2405826615282791
  0.7874871721092234  0.0533996032950270  0.5971782568538089
  0.7208567560993160  0.3000014745528077  0.9063591476008881
  0.7231486406165359  0.4489119369174972  0.4102278513555646
  0.7783766671310204  0.1982256583586945  0.0915655714214694
  0.5360120803514548  0.4962191886891105  0.6508598689831970
  0.9601295615978032  0.2441592240019759  0.8455320099220103
  0.9617247480707007  0.0050241580174060  0.3473851535183385
  0.5386265824627117  0.2541388982107549  0.1525480193022872
  0.5533633558436790  0.1191286278232297  0.5092216524089892
  0.9421679444294355  0.3717240123694339  0.9974801667837809
  0.9453940509509735  0.3750902037425661  0.4982655591891998
  0.5589996160622235  0.1234832663676571  0.0021712198771482
  0.9855811310681517  0.2347932227934209  0.6554371214665125
  0.5217108159722699  0.4648155832164704  0.8393261433189494
  0.5251920752178307  0.2663064626448559  0.3456663000713291
  0.9749726928499456  0.0169187846418950  0.1561377417258853
  0.7105559677494284  0.2966209143481677  0.5975252957129840
  0.7910850673341940  0.0424761420398809  0.9073731466566812
  0.7914299571395347  0.2089586134970460  0.4111998456507209
  0.7069284437856922  0.4582537942840688  0.0890256292366445
  0.1931155527400819  0.6612151026081534  0.7404875522070213
  0.2973029301975814  0.9270022968019447  0.7603111345646454
  0.3113963272164426  0.8430359909752880  0.2597687507199353
  0.1900143456689563  0.5932011342271650  0.2403703055158886
  0.2799848726085585  0.5536346013341813  0.5907926180921592
  0.2217656789271913  0.8040538367039503  0.9101552447084984
  0.2237716922944060  0.9469221239023469  0.4094687466344098
  0.2772773995464348  0.6991387909153062  0.0910048203441463
  0.0532947062833529  0.9998943612422622  0.6593590207284166
  0.4549156000480750  0.7613054357336608  0.8385722254184387
  0.4620202069598207  0.5041265813641331  0.3458505123220519
  0.0385698381651594  0.7543155362095391  0.1546373813942168
  0.0566856176633195  0.6236515901979871  0.5035641307611840
  0.4551750539141608  0.8820601785594775  0.9918934291508137
  0.4455941434259643  0.8739826994794058  0.4969019832531316
  0.0553577279746662  0.6268343541363919  0.0037080651446431
  0.4760094501818131  0.7339108665293566  0.6539857133830367
  0.0237741270382088  0.9833350830524168  0.8460590102023460
  0.0239809657061514  0.7673425664812612  0.3467022893281495
  0.4748734778712560  0.5156170978274375  0.1517916099930119
  0.2084558081597763  0.7927685999211462  0.5903067581384249
  0.2967337676007133  0.5348728275060992  0.9107766946679163
  0.2930669916487361  0.7076789812924744  0.4085412400265227
  0.2062986371648989  0.9585293791248191  0.0925607690528736
  0.6861151823124771  0.6524073080027222  0.7411062969514717
  0.8157439609674455  0.9053494139274036  0.7582175025404680
  0.8111757710444252  0.8434588141730401  0.2607750814019170
  0.6875717060879154  0.5931165128762643  0.2380686635012026
  0.7777776598274073  0.5527677019045711  0.5916780090462197
  0.7181910847772173  0.8055419248464091  0.9057889617675343
  0.7227818991105153  0.9488713798671427  0.4098119565801213
  0.7756324668549581  0.6976977273047140  0.0886607090581322
  0.5304400712575799  0.9942033037937392  0.6639731247817764
  0.9586093378036225  0.7442683207865386  0.8485138883339189
  0.9614902141488813  0.5036173456388653  0.3471214110485619
  0.5374246902204760  0.7538197616279945  0.1515626431956321
  0.5573510452784589  0.6265076296341334  0.5020876247885582
  0.9414547649664939  0.8748319541633620  0.9972118002516908
  0.9449961781923406  0.8769515902809175  0.4980400949830752
  0.5533810498968208  0.6243450917378439  0.0004856083882387
  0.9766069838600870  0.7323151609601695  0.6540410415871918
  0.5049338954285147  0.0034972149488155  0.8334467123441343
  0.5249628151430628  0.7659617176538518  0.3450353144368563
  0.9763289140737612  0.5170191561157367  0.1546375874580050
  0.7079627303096601  0.7927289843617231  0.5936980749417557
  0.7868657462655335  0.5384734077154789  0.9081283663609625
  0.7927127060743118  0.7093772024569702  0.4104467433610779
  0.7089172310146807  0.9582948359390642  0.0921458680271243
 
  0.00000000E+00  0.00000000E+00  0.00000000E+00
  0.00000000E+00  0.00000000E+00  0.00000000E+00
  0.00000000E+00  0.00000000E+00  0.00000000E+00
  0.00000000E+00  0.00000000E+00  0.00000000E+00
  0.00000000E+00  0.00000000E+00  0.00000000E+00
  0.00000000E+00  0.00000000E+00  0.00000000E+00
  0.00000000E+00  0.00000000E+00  0.00000000E+00
  0.00000000E+00  0.00000000E+00  0.00000000E+00
  0.00000000E+00  0.00000000E+00  0.00000000E+00
  0.00000000E+00  0.00000000E+00  0.00000000E+00
  0.00000000E+00  0.00000000E+00  0.00000000E+00
  0.00000000E+00  0.00000000E+00  0.00000000E+00
  0.00000000E+00  0.00000000E+00  0.00000000E+00
  0.00000000E+00  0.00000000E+00  0.00000000E+00
  0.00000000E+00  0.00000000E+00  0.00000000E+00
  0.00000000E+00  0.00000000E+00  0.00000000E+00
  0.00000000E+00  0.00000000E+00  0.00000000E+00
  0.00000000E+00  0.00000000E+00  0.00000000E+00
  0.00000000E+00  0.00000000E+00  0.00000000E+00
  0.00000000E+00  0.00000000E+00  0.00000000E+00
  0.00000000E+00  0.00000000E+00  0.00000000E+00
  0.00000000E+00  0.00000000E+00  0.00000000E+00
  0.00000000E+00  0.00000000E+00  0.00000000E+00
  0.00000000E+00  0.00000000E+00  0.00000000E+00
  0.00000000E+00  0.00000000E+00  0.00000000E+00
  0.00000000E+00  0.00000000E+00  0.00000000E+00
  0.00000000E+00  0.00000000E+00  0.00000000E+00
  0.00000000E+00  0.00000000E+00  0.00000000E+00
  0.00000000E+00  0.00000000E+00  0.00000000E+00
  0.00000000E+00  0.00000000E+00  0.00000000E+00
  0.00000000E+00  0.00000000E+00  0.00000000E+00
  0.00000000E+00  0.00000000E+00  0.00000000E+00
  0.00000000E+00  0.00000000E+00  0.00000000E+00
  0.00000000E+00  0.00000000E+00  0.00000000E+00
  0.00000000E+00  0.00000000E+00  0.00000000E+00
  0.00000000E+00  0.00000000E+00  0.00000000E+00
  0.00000000E+00  0.00000000E+00  0.00000000E+00
  0.00000000E+00  0.00000000E+00  0.00000000E+00
  0.00000000E+00  0.00000000E+00  0.00000000E+00
  0.00000000E+00  0.00000000E+00  0.00000000E+00
  0.00000000E+00  0.00000000E+00  0.00000000E+00
  0.00000000E+00  0.00000000E+00  0.00000000E+00
  0.00000000E+00  0.00000000E+00  0.00000000E+00
  0.00000000E+00  0.00000000E+00  0.00000000E+00
  0.00000000E+00  0.00000000E+00  0.00000000E+00
  0.00000000E+00  0.00000000E+00  0.00000000E+00
  0.00000000E+00  0.00000000E+00  0.00000000E+00
  0.00000000E+00  0.00000000E+00  0.00000000E+00
  0.00000000E+00  0.00000000E+00  0.00000000E+00
  0.00000000E+00  0.00000000E+00  0.00000000E+00
  0.00000000E+00  0.00000000E+00  0.00000000E+00
  0.00000000E+00  0.00000000E+00  0.00000000E+00
  0.00000000E+00  0.00000000E+00  0.00000000E+00
  0.00000000E+00  0.00000000E+00  0.00000000E+00
  0.00000000E+00  0.00000000E+00  0.00000000E+00
  0.00000000E+00  0.00000000E+00  0.00000000E+00
  0.00000000E+00  0.00000000E+00  0.00000000E+00
  0.00000000E+00  0.00000000E+00  0.00000000E+00
  0.00000000E+00  0.00000000E+00  0.00000000E+00
  0.00000000E+00  0.00000000E+00  0.00000000E+00
  0.00000000E+00  0.00000000E+00  0.00000000E+00
  0.00000000E+00  0.00000000E+00  0.00000000E+00
  0.00000000E+00  0.00000000E+00  0.00000000E+00
  0.00000000E+00  0.00000000E+00  0.00000000E+00
  0.00000000E+00  0.00000000E+00  0.00000000E+00
  0.00000000E+00  0.00000000E+00  0.00000000E+00
  0.00000000E+00  0.00000000E+00  0.00000000E+00
  0.00000000E+00  0.00000000E+00  0.00000000E+00
  0.00000000E+00  0.00000000E+00  0.00000000E+00
  0.00000000E+00  0.00000000E+00  0.00000000E+00
  0.00000000E+00  0.00000000E+00  0.00000000E+00
  0.00000000E+00  0.00000000E+00  0.00000000E+00
  0.00000000E+00  0.00000000E+00  0.00000000E+00
  0.00000000E+00  0.00000000E+00  0.00000000E+00
  0.00000000E+00  0.00000000E+00  0.00000000E+00
  0.00000000E+00  0.00000000E+00  0.00000000E+00
  0.00000000E+00  0.00000000E+00  0.00000000E+00
  0.00000000E+00  0.00000000E+00  0.00000000E+00
  0.00000000E+00  0.00000000E+00  0.00000000E+00
  0.00000000E+00  0.00000000E+00  0.00000000E+00
  0.00000000E+00  0.00000000E+00  0.00000000E+00
  0.00000000E+00  0.00000000E+00  0.00000000E+00
  0.00000000E+00  0.00000000E+00  0.00000000E+00
  0.00000000E+00  0.00000000E+00  0.00000000E+00
  0.00000000E+00  0.00000000E+00  0.00000000E+00
  0.00000000E+00  0.00000000E+00  0.00000000E+00
  0.00000000E+00  0.00000000E+00  0.00000000E+00
  0.00000000E+00  0.00000000E+00  0.00000000E+00
  0.00000000E+00  0.00000000E+00  0.00000000E+00
  0.00000000E+00  0.00000000E+00  0.00000000E+00
  0.00000000E+00  0.00000000E+00  0.00000000E+00
  0.00000000E+00  0.00000000E+00  0.00000000E+00
  0.00000000E+00  0.00000000E+00  0.00000000E+00
  0.00000000E+00  0.00000000E+00  0.00000000E+00
  0.00000000E+00  0.00000000E+00  0.00000000E+00
  0.00000000E+00  0.00000000E+00  0.00000000E+00
  0.00000000E+00  0.00000000E+00  0.00000000E+00
  0.00000000E+00  0.00000000E+00  0.00000000E+00
  0.00000000E+00  0.00000000E+00  0.00000000E+00
  0.00000000E+00  0.00000000E+00  0.00000000E+00
  0.00000000E+00  0.00000000E+00  0.00000000E+00
  0.00000000E+00  0.00000000E+00  0.00000000E+00
  0.00000000E+00  0.00000000E+00  0.00000000E+00
  0.00000000E+00  0.00000000E+00  0.00000000E+00
  0.00000000E+00  0.00000000E+00  0.00000000E+00
  0.00000000E+00  0.00000000E+00  0.00000000E+00
  0.00000000E+00  0.00000000E+00  0.00000000E+00
  0.00000000E+00  0.00000000E+00  0.00000000E+00
  0.00000000E+00  0.00000000E+00  0.00000000E+00
  0.00000000E+00  0.00000000E+00  0.00000000E+00
  0.00000000E+00  0.00000000E+00  0.00000000E+00
  0.00000000E+00  0.00000000E+00  0.00000000E+00
  0.00000000E+00  0.00000000E+00  0.00000000E+00
  0.00000000E+00  0.00000000E+00  0.00000000E+00
  0.00000000E+00  0.00000000E+00  0.00000000E+00
  0.00000000E+00  0.00000000E+00  0.00000000E+00
  0.00000000E+00  0.00000000E+00  0.00000000E+00
  0.00000000E+00  0.00000000E+00  0.00000000E+00
  0.00000000E+00  0.00000000E+00  0.00000000E+00
  0.00000000E+00  0.00000000E+00  0.00000000E+00
  0.00000000E+00  0.00000000E+00  0.00000000E+00
  0.00000000E+00  0.00000000E+00  0.00000000E+00
  0.00000000E+00  0.00000000E+00  0.00000000E+00
  0.00000000E+00  0.00000000E+00  0.00000000E+00
  0.00000000E+00  0.00000000E+00  0.00000000E+00
  0.00000000E+00  0.00000000E+00  0.00000000E+00
  0.00000000E+00  0.00000000E+00  0.00000000E+00
  0.00000000E+00  0.00000000E+00  0.00000000E+00
