Na   Ta   Cl                            
   1.00000000000000     
    12.8086700406632001    0.0000004227264436   -0.0315492974735766
     0.0000004651105324   13.6960863482870003   -0.0000019106395650
    -0.3327533513840470   -0.0000026420200669   18.8435734257652996
   Na   Ta   Cl
    15    16    96
Direct
  0.1498393553288799  0.3103442482697665  0.7630363715467134
  0.1042048390948881  0.4046488820031649  0.2533351263400194
  0.3946529106433494  0.1551929983044158  0.2469843546508609
  0.8899124978229682  0.0908595200255249  0.7428424741580821
  0.6051743041623465  0.3433928835536721  0.7519185712306837
  0.6040331357088440  0.4047749174953357  0.2548496857101797
  0.8946500632290886  0.1551553293775766  0.2456857834844835
  0.4004103624429985  0.6129773434184519  0.7515214295379342
  0.1120111218428720  0.8500213749692648  0.7502467039209153
  0.1051823672329892  0.9043866488723299  0.2519881479099826
  0.3944386818789469  0.6536964355958076  0.2469257309826796
  0.8978602221640692  0.5917394730514594  0.7482376920389620
  0.5982317730300197  0.8517518307851213  0.7530808773677237
  0.6040348215415446  0.9051808650224836  0.2534248232556573
  0.8950449841461201  0.6535503945729384  0.2458601120944989
  0.1266762798112930  0.1284518524638812  0.6155097806972712
  0.3831351166552066  0.4009119003361579  0.8888565301133847
  0.3702299575647548  0.3572647938821550  0.3867027437359636
  0.1288020213914806  0.1078213324071690  0.1140437062165126
  0.6193247771132090  0.1408104450845937  0.6178899030913863
  0.8791303297508036  0.3883287522323547  0.8812089020377459
  0.8708439754331173  0.3565434987536089  0.3858639426379433
  0.6280941661114799  0.1083838080719714  0.1146465674378627
  0.1275062522631444  0.6387196704151690  0.6155298082378811
  0.3744014317113243  0.8995378070217619  0.8819833734082215
  0.3699730394725089  0.8571284402123791  0.3838734864792954
  0.1293591655808913  0.6070244980883404  0.1144652850830098
  0.6310195159933301  0.6428501803715038  0.6146415896013532
  0.8719421675175512  0.8891670382254686  0.8850160024391741
  0.8697543161647064  0.8565825801059624  0.3824487828036722
  0.6298392645893718  0.6084777274384955  0.1157429160470100
  0.1881625644285730  0.1210548620890887  0.7381865277415394
  0.3169974956638781  0.4288707782335718  0.7652514935099225
  0.3094459998723814  0.3421034227284500  0.2607268484355851
  0.1892502150145155  0.0924246726800790  0.2398207682938549
  0.2704044297863630  0.0387425943189749  0.5816985184000150
  0.2272923001692337  0.3160518639701615  0.9120382563451948
  0.2207607525083570  0.4477840743990614  0.4093042018690998
  0.2782680981439102  0.1982447388622478  0.0911669946243211
  0.0448596956457486  0.4919734721259731  0.6557176202426666
  0.4564637331263502  0.2542022089054196  0.8441648491200462
  0.4589670588278659  0.0039103359912792  0.3444655318942744
  0.0396204426107267  0.2542016046380976  0.1540646958760629
  0.0518981602949640  0.1254310424029637  0.5023168645345220
  0.4546105122650891  0.3745219646724342  0.0003443428185853
  0.4427940007364057  0.3763125364320866  0.4980042859357857
  0.0563182602813838  0.1265934498706675  0.0025575303453527
  0.4716089241390015  0.2298697008240110  0.6576749794691250
  0.0316285987719953  0.4754071731985482  0.8413362296381282
  0.0230012184687176  0.2663603800088142  0.3451006770274135
  0.4757206983391468  0.0179439564665263  0.1541179873441229
  0.2127540027982052  0.2785780743588702  0.6018415530313739
  0.2903625461124824  0.0446828553680071  0.9079132073574187
  0.2907691488858336  0.2086364391349455  0.4106620912355511
  0.2092603778464777  0.4578349601614455  0.0921004628261772
  0.6868254073735202  0.1544728355728841  0.7421454297081911
  0.8135614620861193  0.4040608763127574  0.7575766827761322
  0.8091257989460076  0.3419857690199279  0.2600757720416509
  0.6897314329716202  0.0919432459080337  0.2401660274464420
  0.7725675117546920  0.0538069455477911  0.5914079234431683
  0.7283776188148052  0.2997143858920261  0.9062576182218810
  0.7216591239674869  0.4470890563471961  0.4093448346742042
  0.7777792721142860  0.1987351481443533  0.0917205513158901
  0.5393551072387310  0.4998958869431517  0.6571743243824173
  0.9662916217979807  0.2407758361603792  0.8434066405138828
  0.9589351380195343  0.0032047570141151  0.3434629999225920
  0.5398906257743424  0.2546270577220038  0.1561472904214878
  0.5504575796833725  0.1251787351216249  0.5039247007230792
  0.9493173416219551  0.3708465192695772  0.9943193828258107
  0.9445520012679428  0.3746630672816834  0.4969495914729080
  0.5549657675161745  0.1293377926929010  0.0037041397484135
  0.9794442766069636  0.2257444202448147  0.6566408109450622
  0.5364824405365034  0.4876014938954079  0.8497352479148325
  0.5226476722027126  0.2668826717356694  0.3468573590859377
  0.9759633954821391  0.0173545248545387  0.1533059387209407
  0.7028107789916553  0.2902859844072319  0.5934540073514072
  0.7930788422905439  0.0379644108017130  0.9109789531644230
  0.7914724755568687  0.2079135595228204  0.4096969748436981
  0.7089075123147033  0.4597655780685467  0.0905370726505886
  0.1893956598758506  0.6598995709322140  0.7399480979464182
  0.3208700907140918  0.9044727889473960  0.7581539011753541
  0.3106597918254606  0.8416492243130858  0.2578532987012150
  0.1885878190303846  0.5925135706322765  0.2406348524686477
  0.2792848799397115  0.5526320610840546  0.5906871826539080
  0.2252729073917393  0.8047524453180313  0.9051268127339904
  0.2197847675064503  0.9467927045309027  0.4058007716810167
  0.2786676619518562  0.6973951158759295  0.0917980405294369
  0.0270449007423352  0.9837795990601536  0.6461419189060278
  0.4695762603188621  0.7491818072046568  0.8488608715081690
  0.4592907385030242  0.5037507132316194  0.3462934389291885
  0.0398366670017293  0.7535058876761587  0.1533609586970937
  0.0541855774535371  0.6208611788359563  0.5033245400696919
  0.4407277743405488  0.8766605801377243  0.9966930874065709
  0.4426201715545320  0.8761242021719721  0.4950986953955558
  0.0579022312166828  0.6239656133355811  0.0025508917563187
  0.4790484130399193  0.7367789475613304  0.6510751010038098
  0.0219864981742102  0.9811762807946911  0.8438879096111767
  0.0226597552408491  0.7659046608000692  0.3429959729526341
  0.4771526878490998  0.5175221668493376  0.1548431099951347
  0.2042978648780322  0.7893232189687028  0.5895336331257894
  0.3087203406088065  0.5509559925491008  0.9194209590802999
  0.2906914142545705  0.7081801722331291  0.4079581847451644
  0.2077966832608053  0.9589458226792502  0.0901405548663342
  0.6925794850686823  0.6619248773608335  0.7388787403769145
  0.8070020739146739  0.9039376112079718  0.7610140606738169
  0.8094539721824404  0.8421434299085098  0.2568075207688886
  0.6899222663806509  0.5917796906982452  0.2413930686457720
  0.7786295568972934  0.5497395130672268  0.5915389622139763
  0.7246009709793626  0.7981427537046454  0.9113446085092347
  0.7206286016313025  0.9467259119309233  0.4066339897889283
  0.7798622734680851  0.6984739419534841  0.0933440194086986
  0.5359786229269276  0.9933514634346640  0.6531457840507577
  0.9625080771985901  0.7443802132181032  0.8448012356095557
  0.9595387360465890  0.5031614888145927  0.3455005965921746
  0.5405532361535067  0.7545697769063826  0.1557091802340628
  0.5570809561101507  0.6213237398085534  0.5030769266215506
  0.9479694848364894  0.8716931911643662  0.9963115937261031
  0.9431343594857180  0.8729176815967773  0.4936263147586991
  0.5578721311443079  0.6292912310480594  0.0045915982803301
  0.9740208112580091  0.7284397429157222  0.6542101989959422
  0.5271895101458924  0.9877904103708937  0.8490423877889914
  0.5228802048680240  0.7664366629474216  0.3450682409457237
  0.9763774633356627  0.5163449975422820  0.1536648244823990
  0.7112761084218424  0.7900155664715909  0.5869184921625981
  0.8014310943442465  0.5387151455865307  0.9065655808242817
  0.7901919049345728  0.7073330131295619  0.4055424625255794
  0.7068143180539378  0.9596538896644531  0.0896199972030622
 
             NaN             NaN             NaN
             NaN             NaN             NaN
             NaN             NaN             NaN
             NaN             NaN             NaN
             NaN             NaN             NaN
             NaN             NaN             NaN
             NaN             NaN             NaN
             NaN             NaN             NaN
             NaN             NaN             NaN
             NaN             NaN             NaN
             NaN             NaN             NaN
             NaN             NaN             NaN
             NaN             NaN             NaN
             NaN             NaN             NaN
             NaN             NaN             NaN
             NaN             NaN             NaN
             NaN             NaN             NaN
             NaN             NaN             NaN
             NaN             NaN             NaN
             NaN             NaN             NaN
             NaN             NaN             NaN
             NaN             NaN             NaN
             NaN             NaN             NaN
             NaN             NaN             NaN
             NaN             NaN             NaN
             NaN             NaN             NaN
             NaN             NaN             NaN
             NaN             NaN             NaN
             NaN             NaN             NaN
             NaN             NaN             NaN
             NaN             NaN             NaN
             NaN             NaN             NaN
             NaN             NaN             NaN
             NaN             NaN             NaN
             NaN             NaN             NaN
             NaN             NaN             NaN
             NaN             NaN             NaN
             NaN             NaN             NaN
             NaN             NaN             NaN
             NaN             NaN             NaN
             NaN             NaN             NaN
             NaN             NaN             NaN
             NaN             NaN             NaN
             NaN             NaN             NaN
             NaN             NaN             NaN
             NaN             NaN             NaN
             NaN             NaN             NaN
             NaN             NaN             NaN
             NaN             NaN             NaN
             NaN             NaN             NaN
             NaN             NaN             NaN
             NaN             NaN             NaN
             NaN             NaN             NaN
             NaN             NaN             NaN
             NaN             NaN             NaN
             NaN             NaN             NaN
             NaN             NaN             NaN
             NaN             NaN             NaN
             NaN             NaN             NaN
             NaN             NaN             NaN
             NaN             NaN             NaN
             NaN             NaN             NaN
             NaN             NaN             NaN
             NaN             NaN             NaN
             NaN             NaN             NaN
             NaN             NaN             NaN
             NaN             NaN             NaN
             NaN             NaN             NaN
             NaN             NaN             NaN
             NaN             NaN             NaN
             NaN             NaN             NaN
             NaN             NaN             NaN
             NaN             NaN             NaN
             NaN             NaN             NaN
             NaN             NaN             NaN
             NaN             NaN             NaN
             NaN             NaN             NaN
             NaN             NaN             NaN
             NaN             NaN             NaN
             NaN             NaN             NaN
             NaN             NaN             NaN
             NaN             NaN             NaN
             NaN             NaN             NaN
             NaN             NaN             NaN
             NaN             NaN             NaN
             NaN             NaN             NaN
             NaN             NaN             NaN
             NaN             NaN             NaN
             NaN             NaN             NaN
             NaN             NaN             NaN
             NaN             NaN             NaN
             NaN             NaN             NaN
             NaN             NaN             NaN
             NaN             NaN             NaN
             NaN             NaN             NaN
             NaN             NaN             NaN
             NaN             NaN             NaN
             NaN             NaN             NaN
             NaN             NaN             NaN
             NaN             NaN             NaN
             NaN             NaN             NaN
             NaN             NaN             NaN
             NaN             NaN             NaN
             NaN             NaN             NaN
             NaN             NaN             NaN
             NaN             NaN             NaN
             NaN             NaN             NaN
             NaN             NaN             NaN
             NaN             NaN             NaN
             NaN             NaN             NaN
             NaN             NaN             NaN
             NaN             NaN             NaN
             NaN             NaN             NaN
             NaN             NaN             NaN
             NaN             NaN             NaN
             NaN             NaN             NaN
             NaN             NaN             NaN
             NaN             NaN             NaN
             NaN             NaN             NaN
             NaN             NaN             NaN
             NaN             NaN             NaN
             NaN             NaN             NaN
             NaN             NaN             NaN
             NaN             NaN             NaN
             NaN             NaN             NaN
             NaN             NaN             NaN
             NaN             NaN             NaN
