Na   Ta   Cl
   1.00000000000000     
  12.8086700406632001   0.0000004227264436  -0.0315492974735766
   0.0000004651105324  13.6960863482870003  -0.0000019106395650
  -0.3327533513840470  -0.0000026420200669  18.8435734257652996
Na   Ta   Cl
15  16  96  
Direct
  0.1088706436802482  0.3405046664756810  0.7540026693728095  
  0.1047070187709664  0.4054007708890381  0.2538908883420277  
  0.3949209406195138  0.1555700932970581  0.2470300220005655  
  0.8920742059802933  0.0930164647473291  0.7367832845735052  
  0.6010307420245624  0.3412132159154879  0.7505059502094511  
  0.6056866799410727  0.4057065105348414  0.2537415399068266  
  0.8951262517112184  0.1553649400720118  0.2474496505333406  
  0.3982618489008800  0.5996080263888004  0.7537839541149012  
  0.1146027513624830  0.8487674400334342  0.7574911583309003  
  0.1048351625571229  0.9049078533694512  0.2529632755089253  
  0.3953129760530985  0.6548690841286344  0.2467454453733922  
  0.8948825353537870  0.5962500672654585  0.7471310704883010  
  0.5996804128945499  0.8495696367255618  0.7541545563998113  
  0.6054339079785933  0.9049899674713088  0.2525854179610363  
  0.8957260993702789  0.6548820453188924  0.2471684465589590  
  0.1363964846168457  0.1419447498228124  0.6165162786063689  
  0.3731272824652976  0.3908242908206887  0.8837644434792509  
  0.3719470565413516  0.3576880332573893  0.3855749670393109  
  0.1284133446208884  0.1084519153909724  0.1149336035111190  
  0.6233996753033750  0.1402525949388931  0.6186167012999775  
  0.8710720423467819  0.3913864281724102  0.8841876148160424  
  0.8717016300142149  0.3578894095753924  0.3863113243865399  
  0.6283027885035040  0.1086510256531312  0.1150421570528408  
  0.1288648744230940  0.6433016667336702  0.6153144667939046  
  0.3733678299179601  0.9013748588313604  0.8812841178578310  
  0.3716278880024007  0.8580514634761656  0.3846486808715710  
  0.1289098236891988  0.6081389480953874  0.1140996086983321  
  0.6276677811659326  0.6426188625027009  0.6157116709307644  
  0.8718562352551942  0.8935684529871679  0.8848837740328221  
  0.8716988184147922  0.8586172111473260  0.3855873358841393  
  0.6286331404464818  0.6084434674904244  0.1143911650711189  
  0.1999573973438515  0.1562832981046682  0.7371166276683923  
  0.3112482938578367  0.4112559704274688  0.7589877500352031  
  0.3105047264688352  0.3432187340047150  0.2597955326456542  
  0.1895032714638347  0.0928274357181493  0.2405504905061804  
  0.2807106354821443  0.0517716045353467  0.5850916025785864  
  0.2193902936188010  0.3066976109616633  0.9084057986519128  
  0.2226743816055787  0.4481761676056450  0.4090405289866794  
  0.2777433840281489  0.1987823061737828  0.0917197060377433  
  0.0405942477902457  0.4969713373965163  0.6553877193429898  
  0.4558146459552148  0.2460969899720666  0.8449032685166955  
  0.4606422193952397  0.0044126563283058  0.3449641415771225  
  0.0395692295075420  0.2548900089254857  0.1553187060741976  
  0.0541628237911240  0.1246069684788367  0.5058814050519800  
  0.4430782814227143  0.3742918945890139  0.9970664855333168  
  0.4454005044016469  0.3757543809460486  0.4967427021237185  
  0.0548919999171105  0.1277593505799857  0.0038000043080899  
  0.4731628629740072  0.2269528639492577  0.6562673928509710  
  0.0237852596830166  0.4815354890216454  0.8443787428462599  
  0.0240884498510709  0.2674911546977228  0.3464854860618232  
  0.4758844759675966  0.0180927370859365  0.1545073929490712  
  0.2109268872150096  0.2922995233034769  0.5882989263144154  
  0.2912824572225148  0.0460399565670571  0.9108057805362790  
  0.2925056185680290  0.2088289143956814  0.4089309293813201  
  0.2078817114775831  0.4591412255488692  0.0901863867114443  
  0.6882659106624658  0.1551060507262250  0.7432982583954271  
  0.8075857285081014  0.4081704032042239  0.7602098730768461  
  0.8106966846628296  0.3427518899112485  0.2603846076241894  
  0.6895584770215066  0.0929640685321473  0.2407205471199489  
  0.7795282175442821  0.0554636030559053  0.5938800837370053  
  0.7214111263889507  0.3030624875977139  0.9101979066386932  
  0.7223109363317519  0.4486391975862460  0.4089879237114431  
  0.7781384072973054  0.1986335100205636  0.0920032432665039  
  0.5381192335349994  0.4969256848937604  0.6552173024487615  
  0.9575026795391750  0.2446262835648128  0.8446035942881380  
  0.9607635695001662  0.0047941894753336  0.3456435418604684  
  0.5398374444521821  0.2551779753058270  0.1553627352091880  
  0.5579264049670130  0.1236930847620670  0.5038629380385302  
  0.9457352884437212  0.3733820644184078  0.9958815754576946  
  0.9445037598146300  0.3770932849226938  0.4974784892781869  
  0.5552706523595603  0.1284080172210267  0.0039803517957395  
  0.9816526798776763  0.2344905917844642  0.6552996352754761  
  0.5274967217183502  0.4810821260801106  0.8457912562181633  
  0.5243019442828896  0.2674053295399332  0.3455448126224212  
  0.9758061684388224  0.0178970303229704  0.1546496160517421  
  0.7052611537221409  0.2907180859006573  0.5948948737354343  
  0.7918583948357991  0.0411802782469124  0.9115674873056604  
  0.7922923374781803  0.2093825473599722  0.4103783613967522  
  0.7080410766224148  0.4593753270991030  0.0906537825212794  
  0.1918852995249622  0.6590847131423700  0.7395694476300250  
  0.3172614839345229  0.9151338886766852  0.7582851424328751  
  0.3106749094368126  0.8428182242540743  0.2589423490908729  
  0.1898965237732497  0.5927587129443097  0.2398901430541969  
  0.2773374852525237  0.5529641457828518  0.5898932822146961  
  0.2231483794890181  0.8066486072939725  0.9035222084910828  
  0.2222209565788447  0.9479570249476126  0.4080475059194413  
  0.2779652148765805  0.6984841160517092  0.0908570368960682  
  0.0453093109978084  0.9946830235338950  0.6551833297975165  
  0.4634887368463865  0.7499325118632214  0.8453152697538471  
  0.4607463343001541  0.5043866233502925  0.3455445112584954  
  0.0396715217028429  0.7543953704790596  0.1543927125950404  
  0.0535301728010182  0.6245148884427536  0.5039044992626600  
  0.4400308742730772  0.8748481877795768  0.9955679536361260  
  0.4451224434366807  0.8760651659401191  0.4957926107137922  
  0.0558502385313346  0.6267019065981785  0.0028005885859628  
  0.4748484870239338  0.7327419045865255  0.6535189014835296  
  0.0213794837161316  0.9865742896770512  0.8444717872205132  
  0.0242469995709982  0.7677764421295521  0.3458137496228559  
  0.4764797090799249  0.5176345316988460  0.1544201479897254  
  0.2078984921046256  0.7918747344800252  0.5892979695701541  
  0.2972156147685752  0.5434578930422873  0.9080339079721540  
  0.2924899592381678  0.7088226611530359  0.4084454906760655  
  0.2072432319324946  0.9596728826353385  0.0905798281456285  
  0.6887398608826061  0.6597399592445612  0.7404932991350677  
  0.8079221759049275  0.9069391354319336  0.7607409396924893  
  0.8109800279172674  0.8429779644497941  0.2597284152901764  
  0.6899345514071484  0.5932994769437059  0.2401758934840572  
  0.7773628951016178  0.5518311058247605  0.5926919396497325  
  0.7242184400666787  0.8019712346493861  0.9105877910016460  
  0.7221135595498467  0.9484127302692116  0.4086522617732555  
  0.7782165580050702  0.6985878181682494  0.0912530909916072  
  0.5420896915026248  0.9914401154953296  0.6530296016364403  
  0.9619123294015850  0.7475281569140364  0.8450147685275340  
  0.9607328270824098  0.5044467624768316  0.3457940746808745  
  0.5395829039301958  0.7547275083011655  0.1541885180916793  
  0.5561342025802460  0.6229294954742031  0.5033139927243298  
  0.9479827713660498  0.8745328144348790  0.9960497582203304  
  0.9444168567975596  0.8772046891953948  0.4968763214119818  
  0.5556733976541608  0.6267755026175195  0.0031713680402348  
  0.9775198327715416  0.7345871849362737  0.6553836187827926  
  0.5278136273854770  0.9871009709016504  0.8490455814110334  
  0.5241975140128972  0.7673133132606864  0.3448598888893954  
  0.9763678055853972  0.5175663348081017  0.1541264048718389  
  0.7074151265010045  0.7908828872853988  0.5898950077041221  
  0.7941496535788488  0.5416400077125161  0.9097391685426786  
  0.7926504999043971  0.7093283559694967  0.4093114757687459  
  0.7073264372872288  0.9596401738046864  0.0907949423939769  
