Na   Ta   Cl                            
   1.00000000000000     
    12.8086700406632001    0.0000004227264436   -0.0315492974735766
     0.0000004651105324   13.6960863482870003   -0.0000019106395650
    -0.3327533513840470   -0.0000026420200669   18.8435734257652996
   Na   Ta   Cl
    17    16    96
Direct
  0.3831338525876808  0.9165172841747602  0.5770643487413937
  0.3812151128470216  0.1060932144212465  0.7551621782558141
  0.1047562834147405  0.3563260672142287  0.7599728617425237
  0.1038178447788044  0.4037249667545919  0.2542875968605877
  0.3953991927449750  0.1526430018780918  0.2466076285070682
  0.8930651251762892  0.1000077075069227  0.7586683683783177
  0.6046366528457335  0.3478932097630922  0.7595616416810737
  0.6051155638323144  0.4046076170031794  0.2555293572002055
  0.8955860858828332  0.1532996869832874  0.2492740138330530
  0.3967752940000694  0.5973513826957584  0.7471388874898730
  0.1026489678683292  0.8496963138840145  0.7558828084485438
  0.0958532475792162  0.9042692236114086  0.2479354018380435
  0.3889839592239874  0.6489629198675205  0.2329928828679145
  0.8947447293635037  0.6002128527081092  0.7484939490345367
  0.6073716068651123  0.8455255510672698  0.7583322618717165
  0.6159302007284606  0.8996866123511436  0.2381536836782960
  0.8970373345001227  0.6544860852104366  0.2496050935102704
  0.1096272761266342  0.1560461897562752  0.6206454302135901
  0.3700116879249803  0.3964315988607626  0.8873500920984206
  0.3689580284194748  0.3552843895352970  0.3850587202846777
  0.1278380928763087  0.1085319415833187  0.1152749140298994
  0.6232076712673362  0.1459989134653860  0.6149145928258530
  0.8693876547613979  0.3980916024273558  0.8877766297393122
  0.8699002677939620  0.3587017211723264  0.3843086278592880
  0.6285336998448937  0.1097712915472476  0.1142995666394196
  0.1293669160856550  0.6442608095651061  0.6161955113903698
  0.3698807600565435  0.8956453405979691  0.8854354129357778
  0.3899114755715360  0.8455207991579912  0.3760587561838522
  0.1252769277662565  0.6062287261077353  0.1153258701720600
  0.6339646804878042  0.6380011990165936  0.6164196428992647
  0.8698676447573758  0.8943362717867229  0.8867860924396015
  0.8781306890623366  0.8603776172675434  0.3860197274344411
  0.6313766444594920  0.6046524461799255  0.1104177496917843
  0.1723397572602972  0.1670320797035934  0.7456487972759749
  0.3107231940975106  0.4107303375144787  0.7611010302182496
  0.3080004963583238  0.3389292678040597  0.2600056865581730
  0.1893667304093379  0.0893692199067507  0.2404512788892907
  0.2708772894124327  0.0747360475319236  0.5998220509542268
  0.2202822260741865  0.3061501398814171  0.9098880346476116
  0.2192328472093421  0.4451427711432079  0.4089467258560951
  0.2780004326180921  0.1974429201528709  0.0920205973694096
  0.0411427887123895  0.5002007486782811  0.6559318065848185
  0.4598573367940436  0.2494327062917966  0.8479068797952747
  0.4725023750959673  0.9943843157976358  0.3376006260132723
  0.0399641582760766  0.2543657351535021  0.1564259595265140
  0.0482056891830167  0.1301524630490387  0.5071753535022490
  0.4427007373653566  0.3755369788401517  0.9984045760153587
  0.4404872088051670  0.3750168278583644  0.4972529330909169
  0.0549509212198513  0.1294490495106020  0.0038677250927529
  0.4728436204169048  0.2351481436090748  0.6575567358614096
  0.0213156728100839  0.4907623477336593  0.8484578462686739
  0.0229923502029430  0.2674874420134859  0.3478138330613897
  0.4753802194801085  0.0179347033785850  0.1519189888097159
  0.1904097010536403  0.3039987363297408  0.5960116041960843
  0.2901612509689642  0.0447019342372695  0.9092126811926842
  0.2899672011009870  0.2058094413602091  0.4099116334967196
  0.2055275737446960  0.4579883073693087  0.0910897216113660
  0.6892195861970360  0.1622494448803090  0.7379973537389328
  0.8094231299276619  0.4122428498851585  0.7618255913862688
  0.8116196221402651  0.3426650048818185  0.2589757198435422
  0.6895465422998130  0.0927677691557906  0.2394467921992874
  0.7686634882706235  0.0525806805325104  0.5893715280470924
  0.7205150201391133  0.3066099303523905  0.9102600137784850
  0.7197082114807087  0.4492757985764729  0.4059517912132596
  0.7785195987034785  0.1982326565028931  0.0903036296401394
  0.5407836168475418  0.4952652779574189  0.6574806612872260
  0.9604461455357315  0.2525824862839542  0.8482782695498822
  0.9709699513869300  0.0057649924115628  0.3481176721946425
  0.5398900737384992  0.2548929211166326  0.1549753183624165
  0.5389765828276870  0.1162757320025855  0.5075122315159714
  0.9431211093262833  0.3781398951372683  0.9987242137205515
  0.9397157535136746  0.3795666374623397  0.4969905721388415
  0.5560361790196567  0.1287205475792052  0.0025764619356380
  0.9575183848808090  0.2410941265680208  0.6573730566720051
  0.5224096531779489  0.4868731826091415  0.8479010763690520
  0.5219000299490417  0.2641096195781574  0.3471137805079595
  0.9733089303270103  0.0192281827284671  0.1534109104035169
  0.6980210430789904  0.2919440183289319  0.5825195084622081
  0.7914979666973284  0.0445342769772945  0.9096068717522797
  0.7900718271120839  0.2100514641351002  0.4092239273791768
  0.7104532561656977  0.4559250272019219  0.0866579040676241
  0.1924235116782547  0.6632055439056657  0.7401470543837009
  0.3075170040335427  0.9135841396994487  0.7585173985896839
  0.3047394074396363  0.8409199179363004  0.2605297559987040
  0.1856105218193228  0.5919753004624465  0.2411682415398483
  0.2806714853846621  0.5579900121532034  0.5918876395512281
  0.2198190840428030  0.8056434918566594  0.9075021226059876
  0.2589920909099291  0.9395658279780966  0.4280506775771588
  0.2759658549807139  0.6967139904555585  0.0925759103158329
  0.0311829872694810  0.0039863953612485  0.6574532521646259
  0.4571450384307210  0.7495301691030923  0.8436862111258029
  0.4569207499803785  0.5010781770251962  0.3441422519010798
  0.0366670092373807  0.7532621540669988  0.1544332623275025
  0.0582160810218260  0.6264363842139586  0.5043161269771987
  0.4414488179601184  0.8749201797959295  0.9965908713043832
  0.5015024854192570  0.8501006320154505  0.4775100994827705
  0.0541784089399820  0.6272959531154305  0.0035981565804348
  0.4784894341946516  0.7338147543511085  0.6514624296289927
  0.0237910655441681  0.9847086545200313  0.8492846604247505
  0.0314263458098705  0.7691901638668517  0.3487129315766355
  0.4801598801616569  0.5122190836670111  0.1511105759139608
  0.2067174090621438  0.7974570126673991  0.5895512386429823
  0.2908231894137909  0.5450997027274269  0.9112840447105504
  0.3073923684981785  0.7017745201816489  0.4086388873560008
  0.2044050247518999  0.9583908617990146  0.0898967250527390
  0.6878985666599807  0.6577422558110019  0.7424216979175247
  0.8109477967261245  0.9105255493977139  0.7605974737859893
  0.8211375001423443  0.8451927788834228  0.2595733944816768
  0.6922286673360620  0.5919331217067899  0.2357750461821191
  0.7837874312562968  0.5479416369731511  0.5965918102031837
  0.7189761441277863  0.8055961042996634  0.9090686054904172
  0.7297622556966955  0.9527341238814695  0.4064064306076166
  0.7794208245136869  0.6963362647461675  0.0871047489561026
  0.5361134013653075  0.9968718267397761  0.6618680663991073
  0.9586849158455824  0.7482848299973035  0.8467482265484362
  0.9604827588325321  0.5049242255494980  0.3460144606233345
  0.5386395566524748  0.7511796128991424  0.1463398187880215
  0.5642409943994181  0.6132717802420250  0.5047147120450560
  0.9408477541076272  0.8747741687271476  0.9985013223522449
  0.9469032776153500  0.8783988767026788  0.4989609512486643
  0.5571017962619919  0.6223861514758798  0.9990623658251763
  0.9787952111575584  0.7373902713218875  0.6548033801347991
  0.5215957717905583  0.9863482420164895  0.8467814290016983
  0.5298839403501894  0.7524617163139113  0.3251278106788378
  0.9734255846730109  0.5163989599192962  0.1544066588580739
  0.7132306896020819  0.7864217777118973  0.5913054655941721
  0.7898887122498929  0.5465239815426420  0.9114762246026034
  0.7959877026175665  0.7120729775195728  0.4088821777034357
  0.7068248371230157  0.9591982063218226  0.0903889334027553
 
             NaN             NaN             NaN
             NaN             NaN             NaN
             NaN             NaN             NaN
             NaN             NaN             NaN
             NaN             NaN             NaN
             NaN             NaN             NaN
             NaN             NaN             NaN
             NaN             NaN             NaN
             NaN             NaN             NaN
             NaN             NaN             NaN
             NaN             NaN             NaN
             NaN             NaN             NaN
             NaN             NaN             NaN
             NaN             NaN             NaN
             NaN             NaN             NaN
             NaN             NaN             NaN
             NaN             NaN             NaN
             NaN             NaN             NaN
             NaN             NaN             NaN
             NaN             NaN             NaN
             NaN             NaN             NaN
             NaN             NaN             NaN
             NaN             NaN             NaN
             NaN             NaN             NaN
             NaN             NaN             NaN
             NaN             NaN             NaN
             NaN             NaN             NaN
             NaN             NaN             NaN
             NaN             NaN             NaN
             NaN             NaN             NaN
             NaN             NaN             NaN
             NaN             NaN             NaN
             NaN             NaN             NaN
             NaN             NaN             NaN
             NaN             NaN             NaN
             NaN             NaN             NaN
             NaN             NaN             NaN
             NaN             NaN             NaN
             NaN             NaN             NaN
             NaN             NaN             NaN
             NaN             NaN             NaN
             NaN             NaN             NaN
             NaN             NaN             NaN
             NaN             NaN             NaN
             NaN             NaN             NaN
             NaN             NaN             NaN
             NaN             NaN             NaN
             NaN             NaN             NaN
             NaN             NaN             NaN
             NaN             NaN             NaN
             NaN             NaN             NaN
             NaN             NaN             NaN
             NaN             NaN             NaN
             NaN             NaN             NaN
             NaN             NaN             NaN
             NaN             NaN             NaN
             NaN             NaN             NaN
             NaN             NaN             NaN
             NaN             NaN             NaN
             NaN             NaN             NaN
             NaN             NaN             NaN
             NaN             NaN             NaN
             NaN             NaN             NaN
             NaN             NaN             NaN
             NaN             NaN             NaN
             NaN             NaN             NaN
             NaN             NaN             NaN
             NaN             NaN             NaN
             NaN             NaN             NaN
             NaN             NaN             NaN
             NaN             NaN             NaN
             NaN             NaN             NaN
             NaN             NaN             NaN
             NaN             NaN             NaN
             NaN             NaN             NaN
             NaN             NaN             NaN
             NaN             NaN             NaN
             NaN             NaN             NaN
             NaN             NaN             NaN
             NaN             NaN             NaN
             NaN             NaN             NaN
             NaN             NaN             NaN
             NaN             NaN             NaN
             NaN             NaN             NaN
             NaN             NaN             NaN
             NaN             NaN             NaN
             NaN             NaN             NaN
             NaN             NaN             NaN
             NaN             NaN             NaN
             NaN             NaN             NaN
             NaN             NaN             NaN
             NaN             NaN             NaN
             NaN             NaN             NaN
             NaN             NaN             NaN
             NaN             NaN             NaN
             NaN             NaN             NaN
             NaN             NaN             NaN
             NaN             NaN             NaN
             NaN             NaN             NaN
             NaN             NaN             NaN
             NaN             NaN             NaN
             NaN             NaN             NaN
             NaN             NaN             NaN
             NaN             NaN             NaN
             NaN             NaN             NaN
             NaN             NaN             NaN
             NaN             NaN             NaN
             NaN             NaN             NaN
             NaN             NaN             NaN
             NaN             NaN             NaN
             NaN             NaN             NaN
             NaN             NaN             NaN
             NaN             NaN             NaN
             NaN             NaN             NaN
             NaN             NaN             NaN
             NaN             NaN             NaN
             NaN             NaN             NaN
             NaN             NaN             NaN
             NaN             NaN             NaN
             NaN             NaN             NaN
             NaN             NaN             NaN
             NaN             NaN             NaN
             NaN             NaN             NaN
             NaN             NaN             NaN
             NaN             NaN             NaN
             NaN             NaN             NaN
             NaN             NaN             NaN
             NaN             NaN             NaN
             NaN             NaN             NaN
