supercell of natacl6_p21c.cif           
   1.00000000000000     
    12.8086700406632197    0.0000004227264436   -0.0315492974735766
     0.0000004651105324   13.6960863482870359   -0.0000019106395650
    -0.3327533513840475   -0.0000026420200669   18.8435734257652570
   Na   Hf   Ta   Cl
    16     1    15    96
Direct
  0.3829657694250841  0.0933379792622375  0.7347866541732984
  0.1072597973969707  0.3417162509298421  0.7429911238377898
  0.1053932369486930  0.4057400420352195  0.2536037620645217
  0.3949779259784663  0.1552155218153359  0.2478864634967195
  0.9011378016794467  0.0938258566375794  0.7411833707157598
  0.6049225578035831  0.3432588424919132  0.7536425407684533
  0.6052925316122710  0.4053793748185868  0.2541968391592633
  0.8947144089340711  0.1556783565110749  0.2478386390757379
  0.3941693823942458  0.5956173585804976  0.7480793324982145
  0.1029404516039065  0.8512182434099813  0.7482280376484312
  0.1053819984948845  0.9051359419770435  0.2535536987759173
  0.3954548511323637  0.6547669120736117  0.2482405311230877
  0.8964634604042629  0.5949588632635496  0.7479301627454831
  0.6043989296646259  0.8459629943353164  0.7538501565947442
  0.6054754206837956  0.9048417822449508  0.2535353261384046
  0.8947566590269389  0.6549248034479831  0.2480198751323854
  0.1281282972797584  0.1424239123511484  0.6158290310887082
  0.3720636343470431  0.3912177254534583  0.8849594232192501
  0.3711797830686052  0.3574780327512102  0.3857110896388534
  0.1280854544266816  0.1083210208156729  0.1150390018943952
  0.6303548805725541  0.1420991303069030  0.6156609446586074
  0.8724624092020505  0.3909180682564966  0.8847560535993111
  0.8723646036250656  0.3577404973206910  0.3853223740789389
  0.6279610309149675  0.1082521585051666  0.1150117584308461
  0.1276469302429746  0.6429780084418084  0.6149947336401453
  0.3720705903190193  0.8922117906373757  0.8848657205807626
  0.3713836652841565  0.8585268611515673  0.3855187094500536
  0.1281645793288391  0.6083275988416688  0.1148624914737724
  0.6282449487446442  0.6418629957530300  0.6151832353166782
  0.8715821987859727  0.8921854767291535  0.8853089260563749
  0.8721280007300294  0.8585685204893636  0.3852540806325280
  0.6280078552662971  0.6081494345536029  0.1149255309570520
  0.1845232473415948  0.1556243420667940  0.7479173247643729
  0.3108325796829234  0.4080553158735256  0.7608672780260406
  0.3105666079056348  0.3429671646196937  0.2594701722432902
  0.1892917329375479  0.0933082433618821  0.2404157997323040
  0.2871914530235244  0.0500913965558354  0.5958693686984162
  0.2230871280350470  0.3028745957887580  0.9110665968608984
  0.2226001587740711  0.4489684392541164  0.4085627324763692
  0.2774861404517921  0.1983949970006904  0.0913068230096457
  0.0370940075786734  0.4976086269874287  0.6536200089374020
  0.4591803006864410  0.2447737942655053  0.8454531524239286
  0.4611234550087104  0.0047076413234279  0.3455297260774088
  0.0393213439585338  0.2548981401857588  0.1543583100070833
  0.0558713151272485  0.1217507167983101  0.4991384052308874
  0.4470066795679415  0.3744782181355788  0.9967145771517636
  0.4454678744216025  0.3764740590904836  0.4965045280457332
  0.0550542924519846  0.1263873231353827  0.0035557683927223
  0.4794289307271171  0.2345077738499839  0.6549642074054205
  0.0254375270160025  0.4791389990638635  0.8439192151160952
  0.0241510263872726  0.2678643712621778  0.3448129482071352
  0.4756879938030849  0.0176771732329897  0.1548014616095656
  0.2095523830341008  0.2995783464526838  0.5957957447239650
  0.2921567639997633  0.0398592925340822  0.9107119662996013
  0.2920094291301893  0.2092863884087350  0.4095224686175882
  0.2073251474074809  0.4591992689187165  0.0909849833608121
  0.6932480254886073  0.1565386069816768  0.7402835090220705
  0.8090162453541154  0.4076139444980384  0.7604974376556868
  0.8106033452629759  0.3435448962520127  0.2591178862755612
  0.6892620196034898  0.0931352242353753  0.2403342780427806
  0.7786617694979867  0.0520786647373015  0.5899151862402405
  0.7213886033036161  0.3031287859856633  0.9097262897845724
  0.7227702467256805  0.4486485977029773  0.4082316186716852
  0.7772656343432729  0.1983708620887512  0.0911977871788210
  0.5389248450107615  0.4957395067780794  0.6543735676593272
  0.9584362667266788  0.2441835068259408  0.8477088028445010
  0.9605690371748921  0.0041554093562297  0.3445908117175236
  0.5392639218306456  0.2547961339546987  0.1544734754416623
  0.5547893792583665  0.1230819650493089  0.5045291847656941
  0.9441648028284675  0.3757225985154520  0.9975208935048485
  0.9452549849821708  0.3759101113863466  0.4962144264205364
  0.5548040470763098  0.1261876810265434  0.0035094505981874
  0.9689632344342982  0.2371816909526743  0.6555860527415760
  0.5250528514332160  0.4822754751275227  0.8454159290289027
  0.5239244304903963  0.2668934885931407  0.3454089579211228
  0.9757437516000849  0.0178714419090511  0.1547296947202526
  0.7088577955663453  0.2911416735392152  0.5904651375776311
  0.7912515192863978  0.0403091145749173  0.9105988128500897
  0.7923484108459178  0.2090809050249050  0.4085045013814579
  0.7072848545290498  0.4591420200278478  0.0909612740892172
  0.1879460713910746  0.6587117907092122  0.7404808983654476
  0.3113602980199559  0.9037840032587212  0.7604428493875943
  0.3107382489738839  0.8430788121840962  0.2594925113059361
  0.1895859566837501  0.5934965154927880  0.2402603068341520
  0.2772516398065292  0.5528761401686140  0.5918979446475419
  0.2234800141565927  0.8009963430919882  0.9093304526779420
  0.2229061351364194  0.9487196430648268  0.4089952470493259
  0.2773587992499316  0.6985713715169410  0.0912024439469548
  0.0341385250220938  0.9900520635425565  0.6556508452652423
  0.4626638467213340  0.7450308451963181  0.8463741796990902
  0.4610373931860536  0.5043202202607944  0.3453084785744593
  0.0391760715301359  0.7547303154243181  0.1544716554542731
  0.0560725616092341  0.6240530103103765  0.5026517504016894
  0.4463514004320288  0.8726891497652431  0.9965739774477314
  0.4455360787615490  0.8760157109122417  0.4965032817016706
  0.0551701270407392  0.6261686723915290  0.0033231449236411
  0.4758934073492753  0.7328067262347346  0.6543923325164371
  0.0236212041823407  0.9826309940215481  0.8481463852039894
  0.0243559092412653  0.7672827963416609  0.3454411711282717
  0.4757730150242168  0.5175847881181568  0.1546578990045901
  0.2062044348601830  0.7922804970230999  0.5907748802264265
  0.2944244342614866  0.5415803971581141  0.9096930492857354
  0.2923643023767966  0.7090289026280487  0.4090057749187466
  0.2071580452304431  0.9591287958021795  0.0910388078244679
  0.6897036064814799  0.6572964978660565  0.7401491594233534
  0.8098028134188979  0.9073218672683439  0.7608068655284086
  0.8104437513313130  0.8423865406787669  0.2592653776694220
  0.6890824105272415  0.5933629297186727  0.2403188073507252
  0.7770129291962107  0.5512743133165046  0.5909742548588355
  0.7222622094919302  0.8008784545623726  0.9090252133370242
  0.7225209330658728  0.9486599302765626  0.4084517913204948
  0.7773109893567707  0.6983815412874463  0.0913067212507599
  0.5422988294342233  0.9953023190664325  0.6553853635168494
  0.9612537403402399  0.7461357351578570  0.8455276703769243
  0.9609434309830505  0.5049465364109480  0.3453375985415050
  0.5390183252749665  0.7546738534331183  0.1543324993004305
  0.5551995452267704  0.6239702228198496  0.5032918275861320
  0.9429353936625162  0.8722381745593282  0.9977523984563987
  0.9449894878538885  0.8768038757284131  0.4962157307379158
  0.5550992397957515  0.6261471123978239  0.0034265057233966
  0.9741764810114120  0.7327423360080445  0.6535522135155531
  0.5224448576229364  0.9842042299785376  0.8451065650181633
  0.5240186377460390  0.7672648684850785  0.3452248208865214
  0.9759253627952873  0.5178590370605249  0.1547607000161335
  0.7076215138880713  0.7908961017496381  0.5907033286718075
  0.7947488652032817  0.5416939020334226  0.9093271284196831
  0.7926202075688025  0.7091256888915041  0.4088626472251775
  0.7070556895087208  0.9590928360706172  0.0910517099661519
 
  0.00000000E+00  0.00000000E+00  0.00000000E+00
  0.00000000E+00  0.00000000E+00  0.00000000E+00
  0.00000000E+00  0.00000000E+00  0.00000000E+00
  0.00000000E+00  0.00000000E+00  0.00000000E+00
  0.00000000E+00  0.00000000E+00  0.00000000E+00
  0.00000000E+00  0.00000000E+00  0.00000000E+00
  0.00000000E+00  0.00000000E+00  0.00000000E+00
  0.00000000E+00  0.00000000E+00  0.00000000E+00
  0.00000000E+00  0.00000000E+00  0.00000000E+00
  0.00000000E+00  0.00000000E+00  0.00000000E+00
  0.00000000E+00  0.00000000E+00  0.00000000E+00
  0.00000000E+00  0.00000000E+00  0.00000000E+00
  0.00000000E+00  0.00000000E+00  0.00000000E+00
  0.00000000E+00  0.00000000E+00  0.00000000E+00
  0.00000000E+00  0.00000000E+00  0.00000000E+00
  0.00000000E+00  0.00000000E+00  0.00000000E+00
  0.00000000E+00  0.00000000E+00  0.00000000E+00
  0.00000000E+00  0.00000000E+00  0.00000000E+00
  0.00000000E+00  0.00000000E+00  0.00000000E+00
  0.00000000E+00  0.00000000E+00  0.00000000E+00
  0.00000000E+00  0.00000000E+00  0.00000000E+00
  0.00000000E+00  0.00000000E+00  0.00000000E+00
  0.00000000E+00  0.00000000E+00  0.00000000E+00
  0.00000000E+00  0.00000000E+00  0.00000000E+00
  0.00000000E+00  0.00000000E+00  0.00000000E+00
  0.00000000E+00  0.00000000E+00  0.00000000E+00
  0.00000000E+00  0.00000000E+00  0.00000000E+00
  0.00000000E+00  0.00000000E+00  0.00000000E+00
  0.00000000E+00  0.00000000E+00  0.00000000E+00
  0.00000000E+00  0.00000000E+00  0.00000000E+00
  0.00000000E+00  0.00000000E+00  0.00000000E+00
  0.00000000E+00  0.00000000E+00  0.00000000E+00
  0.00000000E+00  0.00000000E+00  0.00000000E+00
  0.00000000E+00  0.00000000E+00  0.00000000E+00
  0.00000000E+00  0.00000000E+00  0.00000000E+00
  0.00000000E+00  0.00000000E+00  0.00000000E+00
  0.00000000E+00  0.00000000E+00  0.00000000E+00
  0.00000000E+00  0.00000000E+00  0.00000000E+00
  0.00000000E+00  0.00000000E+00  0.00000000E+00
  0.00000000E+00  0.00000000E+00  0.00000000E+00
  0.00000000E+00  0.00000000E+00  0.00000000E+00
  0.00000000E+00  0.00000000E+00  0.00000000E+00
  0.00000000E+00  0.00000000E+00  0.00000000E+00
  0.00000000E+00  0.00000000E+00  0.00000000E+00
  0.00000000E+00  0.00000000E+00  0.00000000E+00
  0.00000000E+00  0.00000000E+00  0.00000000E+00
  0.00000000E+00  0.00000000E+00  0.00000000E+00
  0.00000000E+00  0.00000000E+00  0.00000000E+00
  0.00000000E+00  0.00000000E+00  0.00000000E+00
  0.00000000E+00  0.00000000E+00  0.00000000E+00
  0.00000000E+00  0.00000000E+00  0.00000000E+00
  0.00000000E+00  0.00000000E+00  0.00000000E+00
  0.00000000E+00  0.00000000E+00  0.00000000E+00
  0.00000000E+00  0.00000000E+00  0.00000000E+00
  0.00000000E+00  0.00000000E+00  0.00000000E+00
  0.00000000E+00  0.00000000E+00  0.00000000E+00
  0.00000000E+00  0.00000000E+00  0.00000000E+00
  0.00000000E+00  0.00000000E+00  0.00000000E+00
  0.00000000E+00  0.00000000E+00  0.00000000E+00
  0.00000000E+00  0.00000000E+00  0.00000000E+00
  0.00000000E+00  0.00000000E+00  0.00000000E+00
  0.00000000E+00  0.00000000E+00  0.00000000E+00
  0.00000000E+00  0.00000000E+00  0.00000000E+00
  0.00000000E+00  0.00000000E+00  0.00000000E+00
  0.00000000E+00  0.00000000E+00  0.00000000E+00
  0.00000000E+00  0.00000000E+00  0.00000000E+00
  0.00000000E+00  0.00000000E+00  0.00000000E+00
  0.00000000E+00  0.00000000E+00  0.00000000E+00
  0.00000000E+00  0.00000000E+00  0.00000000E+00
  0.00000000E+00  0.00000000E+00  0.00000000E+00
  0.00000000E+00  0.00000000E+00  0.00000000E+00
  0.00000000E+00  0.00000000E+00  0.00000000E+00
  0.00000000E+00  0.00000000E+00  0.00000000E+00
  0.00000000E+00  0.00000000E+00  0.00000000E+00
  0.00000000E+00  0.00000000E+00  0.00000000E+00
  0.00000000E+00  0.00000000E+00  0.00000000E+00
  0.00000000E+00  0.00000000E+00  0.00000000E+00
  0.00000000E+00  0.00000000E+00  0.00000000E+00
  0.00000000E+00  0.00000000E+00  0.00000000E+00
  0.00000000E+00  0.00000000E+00  0.00000000E+00
  0.00000000E+00  0.00000000E+00  0.00000000E+00
  0.00000000E+00  0.00000000E+00  0.00000000E+00
  0.00000000E+00  0.00000000E+00  0.00000000E+00
  0.00000000E+00  0.00000000E+00  0.00000000E+00
  0.00000000E+00  0.00000000E+00  0.00000000E+00
  0.00000000E+00  0.00000000E+00  0.00000000E+00
  0.00000000E+00  0.00000000E+00  0.00000000E+00
  0.00000000E+00  0.00000000E+00  0.00000000E+00
  0.00000000E+00  0.00000000E+00  0.00000000E+00
  0.00000000E+00  0.00000000E+00  0.00000000E+00
  0.00000000E+00  0.00000000E+00  0.00000000E+00
  0.00000000E+00  0.00000000E+00  0.00000000E+00
  0.00000000E+00  0.00000000E+00  0.00000000E+00
  0.00000000E+00  0.00000000E+00  0.00000000E+00
  0.00000000E+00  0.00000000E+00  0.00000000E+00
  0.00000000E+00  0.00000000E+00  0.00000000E+00
  0.00000000E+00  0.00000000E+00  0.00000000E+00
  0.00000000E+00  0.00000000E+00  0.00000000E+00
  0.00000000E+00  0.00000000E+00  0.00000000E+00
  0.00000000E+00  0.00000000E+00  0.00000000E+00
  0.00000000E+00  0.00000000E+00  0.00000000E+00
  0.00000000E+00  0.00000000E+00  0.00000000E+00
  0.00000000E+00  0.00000000E+00  0.00000000E+00
  0.00000000E+00  0.00000000E+00  0.00000000E+00
  0.00000000E+00  0.00000000E+00  0.00000000E+00
  0.00000000E+00  0.00000000E+00  0.00000000E+00
  0.00000000E+00  0.00000000E+00  0.00000000E+00
  0.00000000E+00  0.00000000E+00  0.00000000E+00
  0.00000000E+00  0.00000000E+00  0.00000000E+00
  0.00000000E+00  0.00000000E+00  0.00000000E+00
  0.00000000E+00  0.00000000E+00  0.00000000E+00
  0.00000000E+00  0.00000000E+00  0.00000000E+00
  0.00000000E+00  0.00000000E+00  0.00000000E+00
  0.00000000E+00  0.00000000E+00  0.00000000E+00
  0.00000000E+00  0.00000000E+00  0.00000000E+00
  0.00000000E+00  0.00000000E+00  0.00000000E+00
  0.00000000E+00  0.00000000E+00  0.00000000E+00
  0.00000000E+00  0.00000000E+00  0.00000000E+00
  0.00000000E+00  0.00000000E+00  0.00000000E+00
  0.00000000E+00  0.00000000E+00  0.00000000E+00
  0.00000000E+00  0.00000000E+00  0.00000000E+00
  0.00000000E+00  0.00000000E+00  0.00000000E+00
  0.00000000E+00  0.00000000E+00  0.00000000E+00
  0.00000000E+00  0.00000000E+00  0.00000000E+00
  0.00000000E+00  0.00000000E+00  0.00000000E+00
  0.00000000E+00  0.00000000E+00  0.00000000E+00
  0.00000000E+00  0.00000000E+00  0.00000000E+00
  0.00000000E+00  0.00000000E+00  0.00000000E+00
