supercell of natacl6_p21c.cif           
   1.00000000000000     
    12.8086700406632197    0.0000004227264436   -0.0315492974735766
     0.0000004651105324   13.6960863482870359   -0.0000019106395650
    -0.3327533513840475   -0.0000026420200669   18.8435734257652570
   Na   Ta   Cl
    17    15    96
Direct
  0.3881953371379652  0.1029495521934436  0.7572686346474669
  0.1126672878321315  0.3341231374626545  0.7481981907533353
  0.1071492851471447  0.4036536398619575  0.2536855633352246
  0.3954281205192771  0.1575482510205575  0.2483161645193803
  0.9114062684768172  0.0984272262551187  0.7371611774505027
  0.6021391816203092  0.3438015243426591  0.7547525192331079
  0.6085097307055563  0.4046057610945226  0.2507716206976340
  0.8952338491055869  0.1539281014859739  0.2475546798478661
  0.3916088922803951  0.5967906825359037  0.7475793666929675
  0.0987372027414821  0.8551673516819562  0.7510350602798184
  0.1112977934838426  0.9017577689278085  0.2519583517758335
  0.3958383877496274  0.6489018616020772  0.2445123466667596
  0.8978479857266777  0.5968700342287718  0.7501971453877090
  0.6026019618045808  0.8457990369342596  0.7542794937319073
  0.6071099571492979  0.9047299704225580  0.2498303718393160
  0.8951929388224400  0.6554503706286354  0.2462042904937931
  0.1322003738462172  0.1248762617776364  0.6442409891358380
  0.3736720172164354  0.3950238980231120  0.8876657584620276
  0.3743769360258611  0.3607582945566605  0.3821619242306724
  0.1288051670498547  0.1077072450163357  0.1148403537829381
  0.6246095959237152  0.1415341395092753  0.6156314761189350
  0.8713784505375486  0.3909547190986586  0.8846620286933273
  0.8723169680250322  0.3584994305202400  0.3848908719628739
  0.6277266378180428  0.1080735067209062  0.1152714647925279
  0.1251694284598770  0.6460289629885025  0.6159284056448016
  0.3721704529822603  0.8907580578111549  0.8860479207030281
  0.3762513451497611  0.8502684994642635  0.3788069524519102
  0.1281482023139375  0.6070792230360880  0.1138893528337306
  0.6291221440003625  0.6420463212672587  0.6158981498339671
  0.8675425289941074  0.8937165467101664  0.8877497790576001
  0.8718210454327959  0.8575544113043421  0.3853613365236086
  0.6305329508003439  0.6068770951308906  0.1138866223650439
  0.1947440562779050  0.1568579331594364  0.7718833270857601
  0.3131332263359212  0.4085674341727028  0.7634148549473920
  0.3164900311895309  0.3497275675551634  0.2555375225627685
  0.1912828466819434  0.0923110110834173  0.2403701440745465
  0.2593864809104076  0.0596317630166752  0.5365620335156720
  0.2258305708270996  0.3076741032587904  0.9159496447074815
  0.2232512102663335  0.4482616558311108  0.4054445431962179
  0.2781494236574247  0.1980319444550034  0.0914936529956449
  0.0363628264897713  0.5034508833937537  0.6575924348176088
  0.4644205339846579  0.2484925800405406  0.8498838551968646
  0.4615149275117361  0.0008113408312198  0.3433904682881703
  0.0401762907636680  0.2541100037868134  0.1553048065390996
  0.1187141122752138  0.0921646161987226  0.4948775041953226
  0.4501593737172342  0.3771503816982147  0.9989345753526138
  0.4403521117248062  0.3740434435335445  0.4958063720489960
  0.0553627551849303  0.1269996353557872  0.0039646705392542
  0.4708016349525366  0.2315361490162573  0.6556990345075135
  0.0256362847346239  0.4769374264870976  0.8441406604577679
  0.0250001839910254  0.2657364746750801  0.3466685055822865
  0.4747267106281470  0.0185567449444193  0.1549622770382655
  0.1601661977291258  0.3065655194116772  0.6004457301395547
  0.2946312773288327  0.0371134826096764  0.9162745451859351
  0.2953053597146322  0.2095668232038719  0.3983863412375754
  0.2078435276879347  0.4581725329919522  0.0905708785158055
  0.6904555899294067  0.1558963045434112  0.7385961269085186
  0.8055582418753602  0.4096532756132731  0.7614219542503520
  0.8123348563305441  0.3415537716177042  0.2589194630901659
  0.6885728072166586  0.0938437680938762  0.2411606501961074
  0.7715611285676260  0.0510119489482435  0.5889641050911862
  0.7195398446233341  0.3059411186942569  0.9120182932474563
  0.7224713598507293  0.4488409604473489  0.4069754280360129
  0.7775400504482590  0.1974014723954696  0.0915392278283065
  0.5391761752765163  0.4962663494544159  0.6553618165415500
  0.9525288432464620  0.2428061872845859  0.8464039896267508
  0.9612458708559970  0.0046969060109987  0.3459431593136415
  0.5393925780592781  0.2550331502077441  0.1542790329999448
  0.5500992072291595  0.1236405501358462  0.5033635502862666
  0.9458485884469212  0.3730458611017511  0.9966146740796518
  0.9447046184271102  0.3803963685620886  0.4951783845705151
  0.5547751884294101  0.1257284510299783  0.0040158424131320
  0.9707824036602375  0.2579421273058244  0.6499412699025910
  0.5261076868667445  0.4854674139516888  0.8466413587262167
  0.5283108180743099  0.2700865125849390  0.3443141144274904
  0.9773266088870827  0.0168529027951223  0.1554444227906657
  0.7009174013369588  0.2914532354972295  0.5899886601743489
  0.7872719517037581  0.0406748300876600  0.9161253823930977
  0.7931044628927850  0.2094435731909954  0.4098246359116615
  0.7103876162535983  0.4577526587844716  0.0910344776374643
  0.1884073164678668  0.6657103380554119  0.7405332986283000
  0.3110836485206292  0.9080279579296615  0.7620491425685572
  0.3203222746449725  0.8360537332769482  0.2523731614488938
  0.1887873369300621  0.5926477444563574  0.2397927012387768
  0.2748091180755097  0.5529753249303297  0.5944625435308879
  0.2238033112031204  0.7993415237570503  0.9099678719468542
  0.2193329631098990  0.9327659453789394  0.3936815581891722
  0.2778319805762308  0.6967864320009340  0.0904382914891428
  0.0167095736132339  0.9756983426401860  0.6578009972391570
  0.4621780407350613  0.7445402506488392  0.8454259218349662
  0.4658523471759892  0.5064869376217018  0.3460915723816953
  0.0400150181243859  0.7540796213175014  0.1537754367602631
  0.0581867364028525  0.6252286290816471  0.5021532893709804
  0.4494986530661294  0.8688153922569484  0.9967788245253075
  0.4383444568439359  0.8735725214949213  0.4929828260087490
  0.0550920779191841  0.6253479979414962  0.0026074745975677
  0.4766468118073206  0.7335246692934874  0.6546065823866769
  0.0194469345898369  0.9837547024917512  0.8532935327132307
  0.0230666900459298  0.7662595181259917  0.3444772523670139
  0.4783357429424768  0.5151308306308593  0.1532850388190070
  0.2054815038751201  0.7947127693695748  0.5898894248249036
  0.2967623875095953  0.5456322976321246  0.9115588497687099
  0.2992923281453983  0.7001379284065550  0.4027213911525607
  0.2077069130595532  0.9585480949790934  0.0907497975023119
  0.6909350818487354  0.6579328080472209  0.7401523507644541
  0.8039035832228478  0.9120769872142063  0.7650523160365523
  0.8110554472336631  0.8431809304562279  0.2593556769848746
  0.6904462712357713  0.5925526149786577  0.2400563780570977
  0.7770851923809445  0.5511926560811986  0.5906582247127403
  0.7196342053951810  0.7995015268752610  0.9114071431987085
  0.7222343571739884  0.9477749500665169  0.4085880433642330
  0.7797025423347037  0.6970739669148429  0.0910643309040324
  0.5310639734829579  0.9967124771922045  0.6545014961036202
  0.9584173510004277  0.7484422496224994  0.8459601149060916
  0.9613312334445610  0.5040458947480104  0.3433525329095986
  0.5406119780880303  0.7525528994906594  0.1533722128683976
  0.5548835299571593  0.6235690990444454  0.5041222077485870
  0.9379888608407967  0.8694877846656794  0.0005699722113803
  0.9452365922251786  0.8759584642553691  0.4960475849784132
  0.5578007720083988  0.6247416838149604  0.0026996438092226
  0.9715880170468765  0.7334331088937560  0.6519389095795276
  0.5236322111071203  0.9834825227924995  0.8467682273064696
  0.5316264823673222  0.7642978552963839  0.3433238732243566
  0.9761647734398338  0.5166831651382893  0.1539046091509491
  0.7079062932155082  0.7910836655830806  0.5906045451475066
  0.7972772509071575  0.5428973490797944  0.9104177899664521
  0.7925639776249014  0.7083833815387877  0.4091555026712896
  0.7062631059384117  0.9582366384217096  0.0928348868130300
 
  0.00000000E+00  0.00000000E+00  0.00000000E+00
  0.00000000E+00  0.00000000E+00  0.00000000E+00
  0.00000000E+00  0.00000000E+00  0.00000000E+00
  0.00000000E+00  0.00000000E+00  0.00000000E+00
  0.00000000E+00  0.00000000E+00  0.00000000E+00
  0.00000000E+00  0.00000000E+00  0.00000000E+00
  0.00000000E+00  0.00000000E+00  0.00000000E+00
  0.00000000E+00  0.00000000E+00  0.00000000E+00
  0.00000000E+00  0.00000000E+00  0.00000000E+00
  0.00000000E+00  0.00000000E+00  0.00000000E+00
  0.00000000E+00  0.00000000E+00  0.00000000E+00
  0.00000000E+00  0.00000000E+00  0.00000000E+00
  0.00000000E+00  0.00000000E+00  0.00000000E+00
  0.00000000E+00  0.00000000E+00  0.00000000E+00
  0.00000000E+00  0.00000000E+00  0.00000000E+00
  0.00000000E+00  0.00000000E+00  0.00000000E+00
  0.00000000E+00  0.00000000E+00  0.00000000E+00
  0.00000000E+00  0.00000000E+00  0.00000000E+00
  0.00000000E+00  0.00000000E+00  0.00000000E+00
  0.00000000E+00  0.00000000E+00  0.00000000E+00
  0.00000000E+00  0.00000000E+00  0.00000000E+00
  0.00000000E+00  0.00000000E+00  0.00000000E+00
  0.00000000E+00  0.00000000E+00  0.00000000E+00
  0.00000000E+00  0.00000000E+00  0.00000000E+00
  0.00000000E+00  0.00000000E+00  0.00000000E+00
  0.00000000E+00  0.00000000E+00  0.00000000E+00
  0.00000000E+00  0.00000000E+00  0.00000000E+00
  0.00000000E+00  0.00000000E+00  0.00000000E+00
  0.00000000E+00  0.00000000E+00  0.00000000E+00
  0.00000000E+00  0.00000000E+00  0.00000000E+00
  0.00000000E+00  0.00000000E+00  0.00000000E+00
  0.00000000E+00  0.00000000E+00  0.00000000E+00
  0.00000000E+00  0.00000000E+00  0.00000000E+00
  0.00000000E+00  0.00000000E+00  0.00000000E+00
  0.00000000E+00  0.00000000E+00  0.00000000E+00
  0.00000000E+00  0.00000000E+00  0.00000000E+00
  0.00000000E+00  0.00000000E+00  0.00000000E+00
  0.00000000E+00  0.00000000E+00  0.00000000E+00
  0.00000000E+00  0.00000000E+00  0.00000000E+00
  0.00000000E+00  0.00000000E+00  0.00000000E+00
  0.00000000E+00  0.00000000E+00  0.00000000E+00
  0.00000000E+00  0.00000000E+00  0.00000000E+00
  0.00000000E+00  0.00000000E+00  0.00000000E+00
  0.00000000E+00  0.00000000E+00  0.00000000E+00
  0.00000000E+00  0.00000000E+00  0.00000000E+00
  0.00000000E+00  0.00000000E+00  0.00000000E+00
  0.00000000E+00  0.00000000E+00  0.00000000E+00
  0.00000000E+00  0.00000000E+00  0.00000000E+00
  0.00000000E+00  0.00000000E+00  0.00000000E+00
  0.00000000E+00  0.00000000E+00  0.00000000E+00
  0.00000000E+00  0.00000000E+00  0.00000000E+00
  0.00000000E+00  0.00000000E+00  0.00000000E+00
  0.00000000E+00  0.00000000E+00  0.00000000E+00
  0.00000000E+00  0.00000000E+00  0.00000000E+00
  0.00000000E+00  0.00000000E+00  0.00000000E+00
  0.00000000E+00  0.00000000E+00  0.00000000E+00
  0.00000000E+00  0.00000000E+00  0.00000000E+00
  0.00000000E+00  0.00000000E+00  0.00000000E+00
  0.00000000E+00  0.00000000E+00  0.00000000E+00
  0.00000000E+00  0.00000000E+00  0.00000000E+00
  0.00000000E+00  0.00000000E+00  0.00000000E+00
  0.00000000E+00  0.00000000E+00  0.00000000E+00
  0.00000000E+00  0.00000000E+00  0.00000000E+00
  0.00000000E+00  0.00000000E+00  0.00000000E+00
  0.00000000E+00  0.00000000E+00  0.00000000E+00
  0.00000000E+00  0.00000000E+00  0.00000000E+00
  0.00000000E+00  0.00000000E+00  0.00000000E+00
  0.00000000E+00  0.00000000E+00  0.00000000E+00
  0.00000000E+00  0.00000000E+00  0.00000000E+00
  0.00000000E+00  0.00000000E+00  0.00000000E+00
  0.00000000E+00  0.00000000E+00  0.00000000E+00
  0.00000000E+00  0.00000000E+00  0.00000000E+00
  0.00000000E+00  0.00000000E+00  0.00000000E+00
  0.00000000E+00  0.00000000E+00  0.00000000E+00
  0.00000000E+00  0.00000000E+00  0.00000000E+00
  0.00000000E+00  0.00000000E+00  0.00000000E+00
  0.00000000E+00  0.00000000E+00  0.00000000E+00
  0.00000000E+00  0.00000000E+00  0.00000000E+00
  0.00000000E+00  0.00000000E+00  0.00000000E+00
  0.00000000E+00  0.00000000E+00  0.00000000E+00
  0.00000000E+00  0.00000000E+00  0.00000000E+00
  0.00000000E+00  0.00000000E+00  0.00000000E+00
  0.00000000E+00  0.00000000E+00  0.00000000E+00
  0.00000000E+00  0.00000000E+00  0.00000000E+00
  0.00000000E+00  0.00000000E+00  0.00000000E+00
  0.00000000E+00  0.00000000E+00  0.00000000E+00
  0.00000000E+00  0.00000000E+00  0.00000000E+00
  0.00000000E+00  0.00000000E+00  0.00000000E+00
  0.00000000E+00  0.00000000E+00  0.00000000E+00
  0.00000000E+00  0.00000000E+00  0.00000000E+00
  0.00000000E+00  0.00000000E+00  0.00000000E+00
  0.00000000E+00  0.00000000E+00  0.00000000E+00
  0.00000000E+00  0.00000000E+00  0.00000000E+00
  0.00000000E+00  0.00000000E+00  0.00000000E+00
  0.00000000E+00  0.00000000E+00  0.00000000E+00
  0.00000000E+00  0.00000000E+00  0.00000000E+00
  0.00000000E+00  0.00000000E+00  0.00000000E+00
  0.00000000E+00  0.00000000E+00  0.00000000E+00
  0.00000000E+00  0.00000000E+00  0.00000000E+00
  0.00000000E+00  0.00000000E+00  0.00000000E+00
  0.00000000E+00  0.00000000E+00  0.00000000E+00
  0.00000000E+00  0.00000000E+00  0.00000000E+00
  0.00000000E+00  0.00000000E+00  0.00000000E+00
  0.00000000E+00  0.00000000E+00  0.00000000E+00
  0.00000000E+00  0.00000000E+00  0.00000000E+00
  0.00000000E+00  0.00000000E+00  0.00000000E+00
  0.00000000E+00  0.00000000E+00  0.00000000E+00
  0.00000000E+00  0.00000000E+00  0.00000000E+00
  0.00000000E+00  0.00000000E+00  0.00000000E+00
  0.00000000E+00  0.00000000E+00  0.00000000E+00
  0.00000000E+00  0.00000000E+00  0.00000000E+00
  0.00000000E+00  0.00000000E+00  0.00000000E+00
  0.00000000E+00  0.00000000E+00  0.00000000E+00
  0.00000000E+00  0.00000000E+00  0.00000000E+00
  0.00000000E+00  0.00000000E+00  0.00000000E+00
  0.00000000E+00  0.00000000E+00  0.00000000E+00
  0.00000000E+00  0.00000000E+00  0.00000000E+00
  0.00000000E+00  0.00000000E+00  0.00000000E+00
  0.00000000E+00  0.00000000E+00  0.00000000E+00
  0.00000000E+00  0.00000000E+00  0.00000000E+00
  0.00000000E+00  0.00000000E+00  0.00000000E+00
  0.00000000E+00  0.00000000E+00  0.00000000E+00
  0.00000000E+00  0.00000000E+00  0.00000000E+00
  0.00000000E+00  0.00000000E+00  0.00000000E+00
  0.00000000E+00  0.00000000E+00  0.00000000E+00
  0.00000000E+00  0.00000000E+00  0.00000000E+00
  0.00000000E+00  0.00000000E+00  0.00000000E+00
  0.00000000E+00  0.00000000E+00  0.00000000E+00
