supercell of natacl6_p21c.cif           
   1.00000000000000     
    12.8086700406632197    0.0000004227264436   -0.0315492974735766
     0.0000004651105324   13.6960863482870359   -0.0000019106395650
    -0.3327533513840475   -0.0000026420200669   18.8435734257652570
   Na   Hf   Ta   Cl
    16     1    15    96
Direct
  0.3921186456277681  0.0948487377308780  0.7448732799467592
  0.1042494486203296  0.3462708971761188  0.7507937496941679
  0.1054924986944101  0.4053009581083273  0.2524481466812105
  0.3951013877874843  0.1546893892032060  0.2472465049049575
  0.8959742758764264  0.0946321415052225  0.7458347147326023
  0.6047317399048495  0.3451693280709236  0.7532444653341841
  0.6046583284562459  0.4050426175487942  0.2525296627029263
  0.8946645896222805  0.1545448621986765  0.2470417510545388
  0.3952714286089076  0.5950412710650781  0.7474701482191435
  0.1050360236007748  0.8438869159983753  0.7540730414312051
  0.1053942616764729  0.9046231023611284  0.2531267709801099
  0.3950529938244287  0.6552075081478463  0.2472934376198097
  0.8949838078468844  0.5951169691323344  0.7471830103011143
  0.6048382413551039  0.8448968369690562  0.7531105338461472
  0.6048597696604077  0.9048721071410526  0.2530270557448091
  0.8947819547460298  0.6552084895992394  0.2469585257305766
  0.1275361725168551  0.1398602671141731  0.6187426621283265
  0.3718907652473291  0.3918910401488702  0.8852929181373952
  0.3720090725122276  0.3580367420750576  0.3850957861068594
  0.1282569965831044  0.1080084943425703  0.1149925982549220
  0.6285117555039932  0.1419830547628678  0.6151045488264444
  0.8713511894644981  0.3921641277017116  0.8850614373971979
  0.8716316754716118  0.3586728985713705  0.3849692540519456
  0.6280986576140748  0.1081635222067021  0.1149496809703976
  0.1285933015572951  0.6423358990029726  0.6146497011039216
  0.3719900353064745  0.8920303815807884  0.8850255978353374
  0.3717691692732643  0.8582055340289969  0.3850813591366418
  0.1281779046727323  0.6082764895687305  0.1149294936270877
  0.6281131851321078  0.6418326688497018  0.6150048529277825
  0.8714107116900749  0.8917944425774778  0.8852704248302317
  0.8716940398894408  0.8582535888889424  0.3847100162792145
  0.6281122618846027  0.6082411497035736  0.1149435987814869
  0.1894485509191526  0.1588287932089969  0.7458199021572085
  0.3107380804774920  0.4071740434846731  0.7602253910885324
  0.3110233995077394  0.3432399972291407  0.2597008253365445
  0.1890496142359837  0.0933459840223350  0.2403347785330467
  0.2863592450236965  0.0537359930732180  0.5900946167159091
  0.2227813620642891  0.3022921448450759  0.9098632571829199
  0.2227353159941075  0.4481206225465684  0.4091448803362496
  0.2772766317243978  0.1985564542888056  0.0912569808441290
  0.0390526983921688  0.4957791034093333  0.6534932513340337
  0.4606077277564964  0.2453236979051425  0.8458078563366982
  0.4611518577485114  0.0047133007972278  0.3457276972886305
  0.0388021771579474  0.2545926048100569  0.1545086877996553
  0.0534585351344745  0.1250327785895422  0.4996484416197333
  0.4457087818805832  0.3740278533296646  0.9968195991141187
  0.4457267083789844  0.3763702460258145  0.4964869730013035
  0.0548460477110879  0.1267509122224908  0.0034469755450885
  0.4765471814503996  0.2332411520602733  0.6550837320729741
  0.0237752686525852  0.4828546827224685  0.8455660029563248
  0.0241239173862269  0.2676632350990644  0.3454040625746444
  0.4757759647732343  0.0173618552124921  0.1543772062659343
  0.2094899602526965  0.2968946562920109  0.5906949558425652
  0.2925816219829116  0.0406157756927215  0.9096788954280655
  0.2928895712237605  0.2089583859176827  0.4093144835855114
  0.2074279968745429  0.4590987040886176  0.0910197952562797
  0.6901584183186742  0.1569544736784252  0.7402757094353021
  0.8100449693364311  0.4075161045769633  0.7600255000895686
  0.8107597268429743  0.3434163159014929  0.2596658100024385
  0.6889589437362389  0.0933170175362292  0.2404223138936885
  0.7776334285772180  0.0518611419357669  0.5908348981666833
  0.7221160275756446  0.3019720512472759  0.9090883850308771
  0.7223135064107638  0.4486192658056751  0.4087365263705891
  0.7773247518524116  0.1985772143329925  0.0912999328155806
  0.5388533154571391  0.4953392211123315  0.6542467445670965
  0.9602339987118356  0.2457917525725009  0.8457859003647883
  0.9608619027831864  0.0042869813765378  0.3449195957474771
  0.5388410645358448  0.2546668082589250  0.1542965812550392
  0.5542899329074302  0.1233793842777331  0.5038643667947369
  0.9450339593360297  0.3735569388455744  0.9966747282109694
  0.9452448538857681  0.3769750410180208  0.4964081968003811
  0.5551002246328522  0.1263397254287000  0.0033434924411182
  0.9727308716071121  0.2383626869351119  0.6565516790368306
  0.5245326410379434  0.4827769421019426  0.8458298834200448
  0.5243288619078825  0.2671775342782396  0.3455274648700524
  0.9759442694740343  0.0171773393348076  0.1542745415770881
  0.7073641820809797  0.2909418861716091  0.5903851933508761
  0.7922914796284104  0.0409116797599935  0.9093807215504555
  0.7931031785611964  0.2093744559075930  0.4093383184335977
  0.7074328084341914  0.4591001765057925  0.0910051489886072
  0.1891467385913188  0.6562319143077602  0.7401816111568138
  0.3107431045964617  0.9059959064263836  0.7597134593753694
  0.3110373266953204  0.8433941510262883  0.2594762510414910
  0.1891293286185913  0.5934830048381983  0.2403863724075208
  0.2778988139550265  0.5523042592025718  0.5910309684472637
  0.2227965448140168  0.8013995996078052  0.9087489983344526
  0.2227768196234194  0.9483948515116012  0.4086722898507134
  0.2773488294575941  0.6985405981511192  0.0911987594556862
  0.0348453261824275  0.9897784532924092  0.6552829829616513
  0.4613750303065061  0.7453610676557716  0.8458322092583401
  0.4609481000973261  0.5046306230728916  0.3456697454690101
  0.0389235962766676  0.7547101637776308  0.1542495749590103
  0.0554077522894971  0.6238221110783400  0.5029733775139960
  0.4451753543705550  0.8734230365154048  0.9966439701397647
  0.4453169475082746  0.8758980316079601  0.4964812622241723
  0.0550379179339018  0.6262344070298198  0.0033605121261218
  0.4758265764786458  0.7326638664277141  0.6543875515617898
  0.0239788248477524  0.9824170505713496  0.8460063403674241
  0.0240697307861382  0.7670852630460061  0.3455199526624568
  0.4756840710158841  0.5175138005876789  0.1544527965199904
  0.2074580225259481  0.7914751563653368  0.5908329200901932
  0.2930629688532704  0.5413395971820876  0.9094272493627571
  0.2924984618533202  0.7090021295949569  0.4089341718454591
  0.2075275886687180  0.9591290803787373  0.0907410143050313
  0.6890501521302994  0.6566756303632744  0.7403719857898992
  0.8105093896202504  0.9065567575384392  0.7600850670686441
  0.8104533886416831  0.8429689774881481  0.2593995628779737
  0.6890582118015800  0.5932858044308489  0.2404028724565705
  0.7772630896138182  0.5513592607720028  0.5912325272439318
  0.7223590512031777  0.8013489162706122  0.9091003145048262
  0.7226004214915562  0.9485942486173400  0.4086820859783344
  0.7773651156436046  0.6985014697800906  0.0912562593025825
  0.5401045832870750  0.9953355281955396  0.6547012497303086
  0.9607160780353468  0.7451697683176164  0.8460212545863470
  0.9609698040396140  0.5049445205282410  0.3455352518058561
  0.5389668116136050  0.7547173997616028  0.1542071503716897
  0.5551249136878980  0.6237684978013434  0.5033130792481089
  0.9444817792502960  0.8734699453484538  0.9969195854602759
  0.9451038844535447  0.8768824499575274  0.4961678626659207
  0.5551001225132595  0.6262370997414450  0.0033484640515411
  0.9757907611079162  0.7320840395334969  0.6542468795057772
  0.5236956177762551  0.9831661734789066  0.8452613442725152
  0.5241687447220542  0.7672381047760055  0.3453572349170457
  0.9757518344495040  0.5173990796219528  0.1544565137057248
  0.7075864314529809  0.7908286294563638  0.5909319954584902
  0.7923891444036713  0.5411839199841495  0.9096989888232869
  0.7925546648573487  0.7091588033170098  0.4091530971155919
  0.7074791607602151  0.9591540017364082  0.0909607395788115
 
  0.00000000E+00  0.00000000E+00  0.00000000E+00
  0.00000000E+00  0.00000000E+00  0.00000000E+00
  0.00000000E+00  0.00000000E+00  0.00000000E+00
  0.00000000E+00  0.00000000E+00  0.00000000E+00
  0.00000000E+00  0.00000000E+00  0.00000000E+00
  0.00000000E+00  0.00000000E+00  0.00000000E+00
  0.00000000E+00  0.00000000E+00  0.00000000E+00
  0.00000000E+00  0.00000000E+00  0.00000000E+00
  0.00000000E+00  0.00000000E+00  0.00000000E+00
  0.00000000E+00  0.00000000E+00  0.00000000E+00
  0.00000000E+00  0.00000000E+00  0.00000000E+00
  0.00000000E+00  0.00000000E+00  0.00000000E+00
  0.00000000E+00  0.00000000E+00  0.00000000E+00
  0.00000000E+00  0.00000000E+00  0.00000000E+00
  0.00000000E+00  0.00000000E+00  0.00000000E+00
  0.00000000E+00  0.00000000E+00  0.00000000E+00
  0.00000000E+00  0.00000000E+00  0.00000000E+00
  0.00000000E+00  0.00000000E+00  0.00000000E+00
  0.00000000E+00  0.00000000E+00  0.00000000E+00
  0.00000000E+00  0.00000000E+00  0.00000000E+00
  0.00000000E+00  0.00000000E+00  0.00000000E+00
  0.00000000E+00  0.00000000E+00  0.00000000E+00
  0.00000000E+00  0.00000000E+00  0.00000000E+00
  0.00000000E+00  0.00000000E+00  0.00000000E+00
  0.00000000E+00  0.00000000E+00  0.00000000E+00
  0.00000000E+00  0.00000000E+00  0.00000000E+00
  0.00000000E+00  0.00000000E+00  0.00000000E+00
  0.00000000E+00  0.00000000E+00  0.00000000E+00
  0.00000000E+00  0.00000000E+00  0.00000000E+00
  0.00000000E+00  0.00000000E+00  0.00000000E+00
  0.00000000E+00  0.00000000E+00  0.00000000E+00
  0.00000000E+00  0.00000000E+00  0.00000000E+00
  0.00000000E+00  0.00000000E+00  0.00000000E+00
  0.00000000E+00  0.00000000E+00  0.00000000E+00
  0.00000000E+00  0.00000000E+00  0.00000000E+00
  0.00000000E+00  0.00000000E+00  0.00000000E+00
  0.00000000E+00  0.00000000E+00  0.00000000E+00
  0.00000000E+00  0.00000000E+00  0.00000000E+00
  0.00000000E+00  0.00000000E+00  0.00000000E+00
  0.00000000E+00  0.00000000E+00  0.00000000E+00
  0.00000000E+00  0.00000000E+00  0.00000000E+00
  0.00000000E+00  0.00000000E+00  0.00000000E+00
  0.00000000E+00  0.00000000E+00  0.00000000E+00
  0.00000000E+00  0.00000000E+00  0.00000000E+00
  0.00000000E+00  0.00000000E+00  0.00000000E+00
  0.00000000E+00  0.00000000E+00  0.00000000E+00
  0.00000000E+00  0.00000000E+00  0.00000000E+00
  0.00000000E+00  0.00000000E+00  0.00000000E+00
  0.00000000E+00  0.00000000E+00  0.00000000E+00
  0.00000000E+00  0.00000000E+00  0.00000000E+00
  0.00000000E+00  0.00000000E+00  0.00000000E+00
  0.00000000E+00  0.00000000E+00  0.00000000E+00
  0.00000000E+00  0.00000000E+00  0.00000000E+00
  0.00000000E+00  0.00000000E+00  0.00000000E+00
  0.00000000E+00  0.00000000E+00  0.00000000E+00
  0.00000000E+00  0.00000000E+00  0.00000000E+00
  0.00000000E+00  0.00000000E+00  0.00000000E+00
  0.00000000E+00  0.00000000E+00  0.00000000E+00
  0.00000000E+00  0.00000000E+00  0.00000000E+00
  0.00000000E+00  0.00000000E+00  0.00000000E+00
  0.00000000E+00  0.00000000E+00  0.00000000E+00
  0.00000000E+00  0.00000000E+00  0.00000000E+00
  0.00000000E+00  0.00000000E+00  0.00000000E+00
  0.00000000E+00  0.00000000E+00  0.00000000E+00
  0.00000000E+00  0.00000000E+00  0.00000000E+00
  0.00000000E+00  0.00000000E+00  0.00000000E+00
  0.00000000E+00  0.00000000E+00  0.00000000E+00
  0.00000000E+00  0.00000000E+00  0.00000000E+00
  0.00000000E+00  0.00000000E+00  0.00000000E+00
  0.00000000E+00  0.00000000E+00  0.00000000E+00
  0.00000000E+00  0.00000000E+00  0.00000000E+00
  0.00000000E+00  0.00000000E+00  0.00000000E+00
  0.00000000E+00  0.00000000E+00  0.00000000E+00
  0.00000000E+00  0.00000000E+00  0.00000000E+00
  0.00000000E+00  0.00000000E+00  0.00000000E+00
  0.00000000E+00  0.00000000E+00  0.00000000E+00
  0.00000000E+00  0.00000000E+00  0.00000000E+00
  0.00000000E+00  0.00000000E+00  0.00000000E+00
  0.00000000E+00  0.00000000E+00  0.00000000E+00
  0.00000000E+00  0.00000000E+00  0.00000000E+00
  0.00000000E+00  0.00000000E+00  0.00000000E+00
  0.00000000E+00  0.00000000E+00  0.00000000E+00
  0.00000000E+00  0.00000000E+00  0.00000000E+00
  0.00000000E+00  0.00000000E+00  0.00000000E+00
  0.00000000E+00  0.00000000E+00  0.00000000E+00
  0.00000000E+00  0.00000000E+00  0.00000000E+00
  0.00000000E+00  0.00000000E+00  0.00000000E+00
  0.00000000E+00  0.00000000E+00  0.00000000E+00
  0.00000000E+00  0.00000000E+00  0.00000000E+00
  0.00000000E+00  0.00000000E+00  0.00000000E+00
  0.00000000E+00  0.00000000E+00  0.00000000E+00
  0.00000000E+00  0.00000000E+00  0.00000000E+00
  0.00000000E+00  0.00000000E+00  0.00000000E+00
  0.00000000E+00  0.00000000E+00  0.00000000E+00
  0.00000000E+00  0.00000000E+00  0.00000000E+00
  0.00000000E+00  0.00000000E+00  0.00000000E+00
  0.00000000E+00  0.00000000E+00  0.00000000E+00
  0.00000000E+00  0.00000000E+00  0.00000000E+00
  0.00000000E+00  0.00000000E+00  0.00000000E+00
  0.00000000E+00  0.00000000E+00  0.00000000E+00
  0.00000000E+00  0.00000000E+00  0.00000000E+00
  0.00000000E+00  0.00000000E+00  0.00000000E+00
  0.00000000E+00  0.00000000E+00  0.00000000E+00
  0.00000000E+00  0.00000000E+00  0.00000000E+00
  0.00000000E+00  0.00000000E+00  0.00000000E+00
  0.00000000E+00  0.00000000E+00  0.00000000E+00
  0.00000000E+00  0.00000000E+00  0.00000000E+00
  0.00000000E+00  0.00000000E+00  0.00000000E+00
  0.00000000E+00  0.00000000E+00  0.00000000E+00
  0.00000000E+00  0.00000000E+00  0.00000000E+00
  0.00000000E+00  0.00000000E+00  0.00000000E+00
  0.00000000E+00  0.00000000E+00  0.00000000E+00
  0.00000000E+00  0.00000000E+00  0.00000000E+00
  0.00000000E+00  0.00000000E+00  0.00000000E+00
  0.00000000E+00  0.00000000E+00  0.00000000E+00
  0.00000000E+00  0.00000000E+00  0.00000000E+00
  0.00000000E+00  0.00000000E+00  0.00000000E+00
  0.00000000E+00  0.00000000E+00  0.00000000E+00
  0.00000000E+00  0.00000000E+00  0.00000000E+00
  0.00000000E+00  0.00000000E+00  0.00000000E+00
  0.00000000E+00  0.00000000E+00  0.00000000E+00
  0.00000000E+00  0.00000000E+00  0.00000000E+00
  0.00000000E+00  0.00000000E+00  0.00000000E+00
  0.00000000E+00  0.00000000E+00  0.00000000E+00
  0.00000000E+00  0.00000000E+00  0.00000000E+00
  0.00000000E+00  0.00000000E+00  0.00000000E+00
  0.00000000E+00  0.00000000E+00  0.00000000E+00
  0.00000000E+00  0.00000000E+00  0.00000000E+00
