supercell of natacl6_p21c.cif           
   1.00000000000000     
    12.8086700406632197    0.0000004227264436   -0.0315492974735766
     0.0000004651105324   13.6960863482870359   -0.0000019106395650
    -0.3327533513840475   -0.0000026420200669   18.8435734257652570
   Na   Ta   Cl
    17    16    96
Direct
  0.3813857244816816  0.0916099885701769  0.7395832382293435
  0.1042689183627559  0.3437850426995155  0.7435383350500615
  0.1144172458938826  0.4055794121918055  0.2595710773517155
  0.3912672817081102  0.1590480972199231  0.2556908872276225
  0.9056191089962056  0.0920363436666705  0.7485528196845621
  0.6064968625186111  0.3447203946217599  0.7560889116138725
  0.6015856268090829  0.4094663342978251  0.2540680612434159
  0.8943713086468179  0.1570165421882450  0.2458107471804567
  0.3927173269783211  0.5947288261818784  0.7471550773803699
  0.1014185975767319  0.8449726309320624  0.7514993435891384
  0.1061101373800781  0.9040261612040936  0.2511441237516792
  0.3989652032995608  0.6535543698445352  0.2487193028293078
  0.8961699829538148  0.5946941305684632  0.7470982594850639
  0.6052430098228001  0.8420459093206745  0.7564254299663560
  0.6043841124184439  0.9060345317263057  0.2517094435444633
  0.8965725429457763  0.6548466091229201  0.2459246332126170
  0.3602039804780972  0.2048768436139028  0.5313356561557185
  0.1176190443023160  0.1385000301284904  0.6208686183230085
  0.3712897438046596  0.3907205769302777  0.8853008623068988
  0.3745652315298926  0.3656408315844502  0.3752507749190883
  0.1270769675387555  0.1085235325923790  0.1142694392814434
  0.6376664098409393  0.1390495215094063  0.6178260892924712
  0.8730592544316593  0.3916936635763122  0.8849600655015735
  0.8709048417632772  0.3577585151760374  0.3849735796926481
  0.6262513656623554  0.1096694980300796  0.1157981393613454
  0.1271587647151620  0.6415201582925647  0.6140494495033337
  0.3703388901387612  0.8913705225565494  0.8856364535460060
  0.3733986916130760  0.8588361447485440  0.3858048748810461
  0.1294077299745453  0.6082091154884637  0.1141994653058447
  0.6278299354186885  0.6409564576665403  0.6156166595062800
  0.8701460396617193  0.8908728991725070  0.8865847753908866
  0.8731313673128085  0.8580621678062030  0.3844854410926501
  0.6298207366430120  0.6093284263767416  0.1137660801693201
  0.1784059404738230  0.1527562354736673  0.7479425454396704
  0.3099457767321638  0.4065934537120270  0.7606940545626344
  0.3176369405303419  0.3491856583087909  0.2480543930429207
  0.1883367081437086  0.0917794170988842  0.2386473082318048
  0.2803900253708704  0.0488949577795950  0.6002764500642002
  0.2226337593893106  0.3015522739521046  0.9108958540825967
  0.2199925377973599  0.4521030928099776  0.3988640204887659
  0.2764266471091261  0.1967101967674978  0.0884862250983787
  0.0354031481982702  0.4964200517166688  0.6527303496896693
  0.4588359449606827  0.2439603707556728  0.8449194555617225
  0.4636516701270921  0.0050666447085632  0.3473001341545014
  0.0407820545596920  0.2557458238702139  0.1542885488352326
  0.0548418764523859  0.1214291812766390  0.5055766298010056
  0.4471405813823353  0.3728953235169925  0.9962734197021490
  0.4461196620461081  0.3775159294661066  0.4935353056436895
  0.0512197841040347  0.1265266197811954  0.0032127467408003
  0.4821373920701575  0.2312320219019171  0.6574911475163887
  0.0259268868526448  0.4798012268489487  0.8440885124015196
  0.0216179086128818  0.2660630091517788  0.3442749125669238
  0.4729810253883855  0.0218016905359377  0.1566718728194161
  0.2040254684248808  0.2943622597403106  0.6009318773696037
  0.2902833673108489  0.0396818221246065  0.9100118500759251
  0.2898978871946341  0.2081968311691966  0.3972273587583643
  0.2092581304046490  0.4604973481397323  0.0883913105574834
  0.6966307645834675  0.1555610291556064  0.7413385955076421
  0.8106259789951409  0.4067123260715988  0.7599252333947817
  0.8074262719211305  0.3437681476562489  0.2599005464025765
  0.6891822064440802  0.0941056977948307  0.2405755267698808
  0.7831773612218100  0.0493756010674389  0.5896192478158397
  0.7218396162495395  0.3035127669413882  0.9091921581050997
  0.7228687527030573  0.4482882850177532  0.4105987858442788
  0.7774988195748094  0.1969163225403818  0.0906985398266755
  0.5389139681299682  0.4947800211407198  0.6551152900630797
  0.9598904278322991  0.2446659248717751  0.8479602098423413
  0.9616849080169771  0.0041405344310874  0.3448019073911510
  0.5404328608131834  0.2568556716394070  0.1529342773191473
  0.5600509133059433  0.1219949649606420  0.5051756748828282
  0.9446272320435938  0.3755116127435016  0.9972714711231845
  0.9468164671470873  0.3750283834928894  0.4957002189204758
  0.5542716275326995  0.1252587102174161  0.0033914308818694
  0.9651902526359422  0.2340772281469299  0.6578286973457139
  0.5237091525744972  0.4824007331128257  0.8456896143586192
  0.5290309591972502  0.2693644088463500  0.3424035538811339
  0.9740718966948450  0.0180277367315043  0.1541103045111072
  0.7105463768685922  0.2894421862137406  0.5913759572817838
  0.7912899669401128  0.0400568724051453  0.9110475278086341
  0.7914623154734102  0.2087479057351302  0.4093350525219392
  0.7098058612733524  0.4606688476555263  0.0895045678995388
  0.1867610457780202  0.6561544135488475  0.7402445270060767
  0.3082356765716341  0.9025064528082183  0.7609570006345407
  0.3131814005714020  0.8435813427309213  0.2601193095238372
  0.1916941944925696  0.5960102970080428  0.2385875374141548
  0.2759291638231858  0.5501979657902041  0.5917803477145469
  0.2223711797869328  0.8001855830511317  0.9109993181772182
  0.2243997829402034  0.9495774547091074  0.4087941227736067
  0.2772674273089279  0.7000225729971987  0.0893140733887208
  0.0323054377785894  0.9859434126367290  0.6576905110936764
  0.4601777914495386  0.7442597013601642  0.8471350177507588
  0.4698729892672802  0.5152341281818025  0.3445191322564085
  0.0387917838257295  0.7548411486423632  0.1533320522641404
  0.0558541001655541  0.6237936352298803  0.5019204736790925
  0.4460364113055988  0.8747210465454387  0.9967792770906456
  0.4449641534150643  0.8767880583802139  0.4980453535584104
  0.0536568244912772  0.6264659394510659  0.0030778836808736
  0.4763389803827707  0.7326779424333552  0.6562299229243180
  0.0240739574186435  0.9797705531107610  0.8496625154567354
  0.0251209041334093  0.7669980194993684  0.3443356008844702
  0.4773415302098982  0.5192363581633828  0.1512069740303801
  0.2068799519109135  0.7903590274568373  0.5908589291240460
  0.2930205662877086  0.5403690002845778  0.9099110999179629
  0.2945177975552298  0.7097199003096293  0.4095081079720728
  0.2045586653766023  0.9583763845035946  0.0893702812454649
  0.6901972557098333  0.6556388877005617  0.7411197918508918
  0.8094749252276330  0.9071096089592174  0.7616187505810998
  0.8104974145484150  0.8429270949295145  0.2594180379515763
  0.6910893962547107  0.5947086809506104  0.2387359981520163
  0.7765006873261271  0.5504281184213795  0.5910975189148644
  0.7200995776667156  0.8006732612257110  0.9095020068498627
  0.7242365700815157  0.9484355217666689  0.4091511250536612
  0.7790139236937392  0.7003646220440629  0.0902936779598420
  0.5455035055597648  0.9943789357374015  0.6557046060454397
  0.9590520154127091  0.7444116343490137  0.8465230789098968
  0.9589255673701444  0.5045857655577635  0.3448330132694153
  0.5397812424426931  0.7555133922073836  0.1535726736290073
  0.5537915237166544  0.6247715596448842  0.5045926080858649
  0.9409844199261883  0.8711159650878812  0.9987344651645742
  0.9471227313428159  0.8752516332658331  0.4957304545053915
  0.5581983489225522  0.6284317034313460  0.0016452204396487
  0.9741482054063226  0.7317610592730688  0.6533350702969827
  0.5204821912753559  0.9833734742131739  0.8440282084491173
  0.5267612140035141  0.7696829071354259  0.3465352503443455
  0.9792402913549125  0.5161222555721778  0.1552072953984762
  0.7081658610846517  0.7900350895495905  0.5920479782959163
  0.7950843332528379  0.5420503395997684  0.9084371740964627
  0.7935779663991269  0.7089397614217674  0.4086811188431483
  0.7034217069788014  0.9586103917552151  0.0923854385863763
 
  0.00000000E+00  0.00000000E+00  0.00000000E+00
  0.00000000E+00  0.00000000E+00  0.00000000E+00
  0.00000000E+00  0.00000000E+00  0.00000000E+00
  0.00000000E+00  0.00000000E+00  0.00000000E+00
  0.00000000E+00  0.00000000E+00  0.00000000E+00
  0.00000000E+00  0.00000000E+00  0.00000000E+00
  0.00000000E+00  0.00000000E+00  0.00000000E+00
  0.00000000E+00  0.00000000E+00  0.00000000E+00
  0.00000000E+00  0.00000000E+00  0.00000000E+00
  0.00000000E+00  0.00000000E+00  0.00000000E+00
  0.00000000E+00  0.00000000E+00  0.00000000E+00
  0.00000000E+00  0.00000000E+00  0.00000000E+00
  0.00000000E+00  0.00000000E+00  0.00000000E+00
  0.00000000E+00  0.00000000E+00  0.00000000E+00
  0.00000000E+00  0.00000000E+00  0.00000000E+00
  0.00000000E+00  0.00000000E+00  0.00000000E+00
  0.00000000E+00  0.00000000E+00  0.00000000E+00
  0.00000000E+00  0.00000000E+00  0.00000000E+00
  0.00000000E+00  0.00000000E+00  0.00000000E+00
  0.00000000E+00  0.00000000E+00  0.00000000E+00
  0.00000000E+00  0.00000000E+00  0.00000000E+00
  0.00000000E+00  0.00000000E+00  0.00000000E+00
  0.00000000E+00  0.00000000E+00  0.00000000E+00
  0.00000000E+00  0.00000000E+00  0.00000000E+00
  0.00000000E+00  0.00000000E+00  0.00000000E+00
  0.00000000E+00  0.00000000E+00  0.00000000E+00
  0.00000000E+00  0.00000000E+00  0.00000000E+00
  0.00000000E+00  0.00000000E+00  0.00000000E+00
  0.00000000E+00  0.00000000E+00  0.00000000E+00
  0.00000000E+00  0.00000000E+00  0.00000000E+00
  0.00000000E+00  0.00000000E+00  0.00000000E+00
  0.00000000E+00  0.00000000E+00  0.00000000E+00
  0.00000000E+00  0.00000000E+00  0.00000000E+00
  0.00000000E+00  0.00000000E+00  0.00000000E+00
  0.00000000E+00  0.00000000E+00  0.00000000E+00
  0.00000000E+00  0.00000000E+00  0.00000000E+00
  0.00000000E+00  0.00000000E+00  0.00000000E+00
  0.00000000E+00  0.00000000E+00  0.00000000E+00
  0.00000000E+00  0.00000000E+00  0.00000000E+00
  0.00000000E+00  0.00000000E+00  0.00000000E+00
  0.00000000E+00  0.00000000E+00  0.00000000E+00
  0.00000000E+00  0.00000000E+00  0.00000000E+00
  0.00000000E+00  0.00000000E+00  0.00000000E+00
  0.00000000E+00  0.00000000E+00  0.00000000E+00
  0.00000000E+00  0.00000000E+00  0.00000000E+00
  0.00000000E+00  0.00000000E+00  0.00000000E+00
  0.00000000E+00  0.00000000E+00  0.00000000E+00
  0.00000000E+00  0.00000000E+00  0.00000000E+00
  0.00000000E+00  0.00000000E+00  0.00000000E+00
  0.00000000E+00  0.00000000E+00  0.00000000E+00
  0.00000000E+00  0.00000000E+00  0.00000000E+00
  0.00000000E+00  0.00000000E+00  0.00000000E+00
  0.00000000E+00  0.00000000E+00  0.00000000E+00
  0.00000000E+00  0.00000000E+00  0.00000000E+00
  0.00000000E+00  0.00000000E+00  0.00000000E+00
  0.00000000E+00  0.00000000E+00  0.00000000E+00
  0.00000000E+00  0.00000000E+00  0.00000000E+00
  0.00000000E+00  0.00000000E+00  0.00000000E+00
  0.00000000E+00  0.00000000E+00  0.00000000E+00
  0.00000000E+00  0.00000000E+00  0.00000000E+00
  0.00000000E+00  0.00000000E+00  0.00000000E+00
  0.00000000E+00  0.00000000E+00  0.00000000E+00
  0.00000000E+00  0.00000000E+00  0.00000000E+00
  0.00000000E+00  0.00000000E+00  0.00000000E+00
  0.00000000E+00  0.00000000E+00  0.00000000E+00
  0.00000000E+00  0.00000000E+00  0.00000000E+00
  0.00000000E+00  0.00000000E+00  0.00000000E+00
  0.00000000E+00  0.00000000E+00  0.00000000E+00
  0.00000000E+00  0.00000000E+00  0.00000000E+00
  0.00000000E+00  0.00000000E+00  0.00000000E+00
  0.00000000E+00  0.00000000E+00  0.00000000E+00
  0.00000000E+00  0.00000000E+00  0.00000000E+00
  0.00000000E+00  0.00000000E+00  0.00000000E+00
  0.00000000E+00  0.00000000E+00  0.00000000E+00
  0.00000000E+00  0.00000000E+00  0.00000000E+00
  0.00000000E+00  0.00000000E+00  0.00000000E+00
  0.00000000E+00  0.00000000E+00  0.00000000E+00
  0.00000000E+00  0.00000000E+00  0.00000000E+00
  0.00000000E+00  0.00000000E+00  0.00000000E+00
  0.00000000E+00  0.00000000E+00  0.00000000E+00
  0.00000000E+00  0.00000000E+00  0.00000000E+00
  0.00000000E+00  0.00000000E+00  0.00000000E+00
  0.00000000E+00  0.00000000E+00  0.00000000E+00
  0.00000000E+00  0.00000000E+00  0.00000000E+00
  0.00000000E+00  0.00000000E+00  0.00000000E+00
  0.00000000E+00  0.00000000E+00  0.00000000E+00
  0.00000000E+00  0.00000000E+00  0.00000000E+00
  0.00000000E+00  0.00000000E+00  0.00000000E+00
  0.00000000E+00  0.00000000E+00  0.00000000E+00
  0.00000000E+00  0.00000000E+00  0.00000000E+00
  0.00000000E+00  0.00000000E+00  0.00000000E+00
  0.00000000E+00  0.00000000E+00  0.00000000E+00
  0.00000000E+00  0.00000000E+00  0.00000000E+00
  0.00000000E+00  0.00000000E+00  0.00000000E+00
  0.00000000E+00  0.00000000E+00  0.00000000E+00
  0.00000000E+00  0.00000000E+00  0.00000000E+00
  0.00000000E+00  0.00000000E+00  0.00000000E+00
  0.00000000E+00  0.00000000E+00  0.00000000E+00
  0.00000000E+00  0.00000000E+00  0.00000000E+00
  0.00000000E+00  0.00000000E+00  0.00000000E+00
  0.00000000E+00  0.00000000E+00  0.00000000E+00
  0.00000000E+00  0.00000000E+00  0.00000000E+00
  0.00000000E+00  0.00000000E+00  0.00000000E+00
  0.00000000E+00  0.00000000E+00  0.00000000E+00
  0.00000000E+00  0.00000000E+00  0.00000000E+00
  0.00000000E+00  0.00000000E+00  0.00000000E+00
  0.00000000E+00  0.00000000E+00  0.00000000E+00
  0.00000000E+00  0.00000000E+00  0.00000000E+00
  0.00000000E+00  0.00000000E+00  0.00000000E+00
  0.00000000E+00  0.00000000E+00  0.00000000E+00
  0.00000000E+00  0.00000000E+00  0.00000000E+00
  0.00000000E+00  0.00000000E+00  0.00000000E+00
  0.00000000E+00  0.00000000E+00  0.00000000E+00
  0.00000000E+00  0.00000000E+00  0.00000000E+00
  0.00000000E+00  0.00000000E+00  0.00000000E+00
  0.00000000E+00  0.00000000E+00  0.00000000E+00
  0.00000000E+00  0.00000000E+00  0.00000000E+00
  0.00000000E+00  0.00000000E+00  0.00000000E+00
  0.00000000E+00  0.00000000E+00  0.00000000E+00
  0.00000000E+00  0.00000000E+00  0.00000000E+00
  0.00000000E+00  0.00000000E+00  0.00000000E+00
  0.00000000E+00  0.00000000E+00  0.00000000E+00
  0.00000000E+00  0.00000000E+00  0.00000000E+00
  0.00000000E+00  0.00000000E+00  0.00000000E+00
  0.00000000E+00  0.00000000E+00  0.00000000E+00
  0.00000000E+00  0.00000000E+00  0.00000000E+00
  0.00000000E+00  0.00000000E+00  0.00000000E+00
  0.00000000E+00  0.00000000E+00  0.00000000E+00
  0.00000000E+00  0.00000000E+00  0.00000000E+00
