Na   Ta   Cl
   1.00000000000000     
  12.8086700406632001   0.0000004227264436  -0.0315492974735766
   0.0000004651105324  13.6960863482870003  -0.0000019106395650
  -0.3327533513840470  -0.0000026420200669  18.8435734257652996
Na   Ta   Cl
17  16  96  
Direct
  0.3667708223404773  0.3864861755667093  0.6174100093313086  
  0.3931895349648329  0.0916480644307214  0.7504044551619913  
  0.0989330394706229  0.3462438700579824  0.7537247410336576  
  0.0988533354953844  0.4043719897260232  0.2513883223233577  
  0.3944547763803783  0.1513053675497034  0.2431900339835806  
  0.8975224509496869  0.0955785678582615  0.7544843282526088  
  0.6136476286096837  0.3409482421880412  0.7595524144070325  
  0.6090889890041211  0.4036795547553353  0.2480381585100488  
  0.8959672135573271  0.1541150376437983  0.2478130263906735  
  0.3966583913804627  0.6019327773642260  0.7548746089385858  
  0.1080530475727244  0.8437901485587389  0.7594565799140014  
  0.1046052897725076  0.9045589111128862  0.2534963333892648  
  0.3939587740586532  0.6564282412555329  0.2443674302009455  
  0.8968799738146416  0.5948159316496628  0.7492593733023512  
  0.6077873988136275  0.8462239550004824  0.7573264189794671  
  0.6045531465116909  0.9050167855305348  0.2537669930804256  
  0.8952505478477164  0.6538828192409412  0.2474784324353649  
  0.1207542943388944  0.1378037145480207  0.6129501210681241  
  0.3720833472185348  0.3928370328864830  0.8875966154568218  
  0.3744471059836627  0.3565235543709235  0.3799469734548353  
  0.1277900600678024  0.1073834023618261  0.1154418845866800  
  0.6322406825330305  0.1362772289046745  0.6143617454962325  
  0.8729924130210094  0.3931204303112210  0.8860999959343374  
  0.8716543712734861  0.3581893973940069  0.3851308471913200  
  0.6296292757430848  0.1074435060767911  0.1137484869679497  
  0.1241096777013553  0.6483625512893596  0.6141343639029060  
  0.3720934449742401  0.8934466708376050  0.8865907968267592  
  0.3706311476588695  0.8576907053449574  0.3845409382230898  
  0.1282660040775454  0.6079760062381112  0.1154632838919767  
  0.6293151300854731  0.6441755271418117  0.6154393556402766  
  0.8726719465316037  0.8918531595467840  0.8862612249122108  
  0.8700512078759814  0.8571545474975650  0.3838458770781443  
  0.6288849433544854  0.6087504510622423  0.1146190525446826  
  0.1916966754970204  0.1637497547231277  0.7349496209825475  
  0.3061359266915673  0.4122966026395005  0.7590969838886465  
  0.3070993799600288  0.3416997553140320  0.2588524473746219  
  0.1882687272926375  0.0930428461828612  0.2409689626427749  
  0.2745271663560089  0.0568090367968921  0.5871013669813578  
  0.2216925730792383  0.3035462120896852  0.9082206506733854  
  0.2297096324817005  0.4469882512076495  0.4128427688713145  
  0.2775919650292522  0.1976571267602196  0.0919931834261831  
  0.0438108286263699  0.4974689423882523  0.6531367830370272  
  0.4581206199716519  0.2474616065480646  0.8450367044082370  
  0.4600948185246878  0.0042668139413138  0.3457054317991037  
  0.0384173839970074  0.2539634278812954  0.1546247747637963  
  0.0444438449164224  0.1164660391736163  0.5031401012040604  
  0.4430345636489719  0.3737017551173238  0.9985490817120491  
  0.4627091750180341  0.3737399784582678  0.4902556166573362  
  0.0554460755886623  0.1266871397342086  0.0036592135999882  
  0.4763550065326640  0.2270592444257176  0.6593043843330264  
  0.0255670749230532  0.4841487495842642  0.8474551955522713  
  0.0254872254074527  0.2675720405954962  0.3481091785850339  
  0.4775439245891633  0.0156464288761313  0.1529041018231609  
  0.1889370319908821  0.2926731900787587  0.5795846700290639  
  0.2912526465519036  0.0423193107824673  0.9082912062439448  
  0.2969742225753507  0.2091077509375765  0.4103860408746982  
  0.2064805879561433  0.4584418979147458  0.0906796573219779  
  0.6919287867358008  0.1523111050207859  0.7395615765695780  
  0.8157481559039397  0.4065915703829504  0.7591822002051956  
  0.8145268431380757  0.3432829669094559  0.2591392075530123  
  0.6899644655431061  0.0928761993631610  0.2390403936044834  
  0.7795188696610822  0.0484545423056204  0.5876823196272625  
  0.7229560957315471  0.3017928406592887  0.9071533497013604  
  0.7217572613886460  0.4486492352816640  0.4067807524069593  
  0.7782504408481259  0.1985444765560942  0.0902765027080505  
  0.5411293866950189  0.4945400985477875  0.6604227066192720  
  0.9636462324348188  0.2464702535754739  0.8477711909899952  
  0.9597859249145840  0.0037136057611633  0.3455259501922328  
  0.5386774213200383  0.2535306746416737  0.1527334030027419  
  0.5526038043568775  0.1226400423848091  0.5047203872245163  
  0.9432243873788622  0.3748442239558685  0.9979996081471824  
  0.9405887499519848  0.3766132255106101  0.4980931673972151  
  0.5560605207506413  0.1265524913422240  0.0021285475836592  
  0.9708148430292241  0.2287198502166206  0.6552167716527890  
  0.5239243024467228  0.4818948633516911  0.8468248130008575  
  0.5250043807451021  0.2650810487458131  0.3399616631063083  
  0.9754788305733512  0.0167687411607034  0.1543158417705257  
  0.7050295868208707  0.2883345712045227  0.5917786452033056  
  0.7937181601006316  0.0414358294572637  0.9090079009223616  
  0.7913166466552255  0.2092068384575114  0.4083659249616431  
  0.7071750257417051  0.4589263456639259  0.0904103620519550  
  0.1902522287861785  0.6590291549847365  0.7384172071625557  
  0.3125552533729632  0.9056086291657550  0.7599867498553365  
  0.3104834175188245  0.8435250855558891  0.2591905139924506  
  0.1888841662212641  0.5910602085933689  0.2407327456892219  
  0.2800622053071038  0.5645433377824389  0.5856134589595356  
  0.2231976389033505  0.8019073022944809  0.9090555777500312  
  0.2211603078342250  0.9480803199009812  0.4081801182327283  
  0.2782844850486583  0.6975244406096053  0.0920493492192946  
  0.0401124714837806  0.9927287521038934  0.6566902951462694  
  0.4640829177147836  0.7475501487837235  0.8484087802532230  
  0.4618125150465104  0.5033338296460457  0.3417574350490327  
  0.0397868324149044  0.7542556291435645  0.1551373645118730  
  0.0516101289065602  0.6266009580478524  0.5031656598550001  
  0.4432411621344983  0.8760887304937839  0.9983018310701012  
  0.4426445668838497  0.8756628070883963  0.4967843255712125  
  0.0559557834224904  0.6272725934680636  0.0036264206661087  
  0.4772591708251568  0.7326350049407395  0.6563973870036293  
  0.0263168770878792  0.9826702039389660  0.8477257455243006  
  0.0231801171734531  0.7667380325851312  0.3458822484945330  
  0.4758385464571901  0.5178424326560034  0.1532796029300982  
  0.2025868501443426  0.7970707878400844  0.5899069306796321  
  0.2930345916430142  0.5424529419989739  0.9093219065723446  
  0.2906041650466307  0.7088290145584963  0.4084673797845468  
  0.2073961921009726  0.9586788023252382  0.0911207502803109  
  0.6917692125797927  0.6587720473377630  0.7400270132927744  
  0.8136904818231017  0.9068507827062504  0.7599943210971958  
  0.8104231417533043  0.8425039540540809  0.2587424434510623  
  0.6893650858454166  0.5931832519271580  0.2398170324128657  
  0.7758757716217204  0.5505061790152013  0.5918531977103711  
  0.7227491857325887  0.8024011330717116  0.9090732139322384  
  0.7207187566895215  0.9477108853494088  0.4075959031619618  
  0.7785829339497070  0.6978486702631841  0.0904787422318662  
  0.5407018757069721  0.9926527782148112  0.6544742004154926  
  0.9616565055555172  0.7451426822718119  0.8467627947744560  
  0.9626305003421224  0.5043818405387626  0.3471351028156064  
  0.5402873711836520  0.7551582903309466  0.1540414455746983  
  0.5511654053860013  0.6200803246739852  0.5062178906414943  
  0.9448286261530754  0.8734165172188568  0.9977196098258574  
  0.9418923515981632  0.8750185491432774  0.4962930893481143  
  0.5557012027887112  0.6272568335979543  0.0028809791172364  
  0.9730158271659660  0.7345200647345749  0.6553510139774232  
  0.5243668154207768  0.9845431973699306  0.8470938135795691  
  0.5229292103597984  0.7664877530177563  0.3459996525860305  
  0.9747227294134646  0.5178115077747094  0.1538158874691007  
  0.7074624318067677  0.7907679981965217  0.5877362852803429  
  0.7916058095567280  0.5413415996363184  0.9084343497990304  
  0.7903798928716412  0.7082308228339684  0.4080887115435772  
  0.7090106701612839  0.9589293203049040  0.0889689859091192  
