supercell of natacl6_p21c.cif           
   1.00000000000000     
    12.8086700406632197    0.0000004227264436   -0.0315492974735766
     0.0000004651105324   13.6960863482870359   -0.0000019106395650
    -0.3327533513840475   -0.0000026420200669   18.8435734257652570
   Na   W    Ta   Cl
    16     1    15    96
Direct
  0.4060285633376495  0.0961054572782558  0.7542372833488002
  0.1082511365780690  0.3530691187404074  0.7606942645678316
  0.1045582859692757  0.4041095036057030  0.2522183529512390
  0.3948301196753050  0.1544967149770287  0.2462205370989565
  0.8835128021166341  0.0977516392265585  0.7579258647320799
  0.6047437927067705  0.3475990434153999  0.7518545230588600
  0.6045986896504019  0.4041856900965257  0.2519183439375681
  0.8951464443576498  0.1541277924727069  0.2463566650353144
  0.3965139815816912  0.5936415030245357  0.7457814267779668
  0.1106095819767248  0.8350557610509810  0.7618193323187725
  0.1042419941010806  0.9047495784878947  0.2522390297610713
  0.3942716606976973  0.6555594071241089  0.2461087172149803
  0.8931337750478434  0.5952349739129090  0.7452070191526090
  0.6051955564341043  0.8438735865297602  0.7517269176950592
  0.6045585490511627  0.9048852169540709  0.2524772139829565
  0.8952582565232348  0.6550029622832696  0.2464087299599669
  0.1270156987631879  0.1401257454503551  0.6117627372915919
  0.3718633931410835  0.3922238433923582  0.8853075742135914
  0.3720171153448959  0.3589588544222835  0.3849400123155178
  0.1282111224357863  0.1080158942054368  0.1148364502618620
  0.6256286256468329  0.1415046788010699  0.6142219009294507
  0.8706762514797077  0.3936674776880409  0.8851109936261210
  0.8716785228880752  0.3580282517373377  0.3849078287418450
  0.6284715341475930  0.1080634240814433  0.1149546902618113
  0.1290374943710617  0.6407436978056467  0.6147252374630838
  0.3719596777464673  0.8921666016961325  0.8851604362405467
  0.3721988142345865  0.8582998188637703  0.3850814239880123
  0.1281981048732490  0.6079451522264137  0.1152176195076180
  0.6281265553160296  0.6417793159612160  0.6148189696800088
  0.8719661579700428  0.8906847539993450  0.8844103458494672
  0.8719262332038156  0.8585424686074248  0.3850141604549222
  0.6283453783506587  0.6081669791161062  0.1151173111969115
  0.1900502957876924  0.1567446745823631  0.7322434633803994
  0.3127565431825161  0.4042250267051912  0.7580772671016263
  0.3104653028612390  0.3429184701712060  0.2603508349835693
  0.1886332347920430  0.0933289571234610  0.2402893846716196
  0.2718671389284566  0.0517914345402843  0.5868254507010633
  0.2221291186928980  0.3003517775669167  0.9064209308703326
  0.2222533686275341  0.4484133597927809  0.4092665969111735
  0.2773003222928594  0.1986279771647972  0.0912323706748026
  0.0402332961093421  0.4930063300538308  0.6541554770379960
  0.4636024862682220  0.2463537464203256  0.8467491781713363
  0.4607963719995425  0.0050648899753085  0.3461966762240252
  0.0384524872662055  0.2543840321009370  0.1539188258673647
  0.0578760195760069  0.1249811084818759  0.5016269087467506
  0.4424527317043498  0.3735115802602706  0.9970120663153210
  0.4439793082973083  0.3762623149180016  0.4973317870780463
  0.0555051844238079  0.1260063613261693  0.0029028632195534
  0.4709385900328584  0.2303168837934635  0.6527757735987549
  0.0212009286970769  0.4886870663255678  0.8475409250704971
  0.0244185750884540  0.2665724322138558  0.3460708104579595
  0.4760634737823040  0.0169237723594904  0.1539647700826734
  0.2054950806894098  0.2847734931089860  0.5860583632095668
  0.2936206327568343  0.0425454104805780  0.9075665423221650
  0.2923647458738969  0.2090326041126573  0.4100735050334876
  0.2077923482236841  0.4591167729421031  0.0909352801017675
  0.6823479480944599  0.1576282920679404  0.7408155299830170
  0.8122497461234630  0.4068554448200032  0.7588518447203469
  0.8110742169435383  0.3428809079148891  0.2603498734285239
  0.6887669337199185  0.0934807525163635  0.2404111155351956
  0.7768361321621029  0.0521839348835300  0.5932062587809028
  0.7242411724099611  0.2990244647877915  0.9069385036049979
  0.7232167001944276  0.4481211014230624  0.4100090030666479
  0.7775138426915618  0.1986836923548339  0.0913335035530025
  0.5389241431279785  0.4947398878166354  0.6538570104000527
  0.9652952197578131  0.2486926900820592  0.8425901882903375
  0.9616411121192598  0.0055964928616916  0.3464600919006813
  0.5385545884717686  0.2544993365980659  0.1540134234469548
  0.5556460340745986  0.1233279663505726  0.5021320858632308
  0.9454700261670297  0.3707874662168535  0.9953249519507352
  0.9459092539741931  0.3746784835374442  0.4972530517351785
  0.5556536808106216  0.1263950726137395  0.0031460822366540
  0.9793193554852664  0.2278536185893216  0.6494982132006797
  0.5230373101296806  0.4835223757317522  0.8457953863306287
  0.5238195733085647  0.2674789045444754  0.3462553517072351
  0.9758432671745254  0.0167989027381736  0.1538645970504220
  0.7050845395834671  0.2908895244846406  0.5916073867717131
  0.7945319626091987  0.0417487817185815  0.9067197642193463
  0.7928914213084468  0.2086348587167350  0.4097659005914878
  0.7077309642663678  0.4592151370373614  0.0909556570171688
  0.1912741165853546  0.6520430612992811  0.7402251229785008
  0.3108023984199946  0.9108999363149337  0.7587501382846540
  0.3103919051103716  0.8441545827337649  0.2603459531367776
  0.1884436176816635  0.5931590614481266  0.2406347726301306
  0.2779386847673990  0.5508569118689053  0.5896866298132011
  0.2214041790724863  0.8026147703198632  0.9079346760330438
  0.2224559509699588  0.9491033797671662  0.4098070134522089
  0.2773960576321315  0.6984438178174699  0.0914804688284789
  0.0420848099979594  0.9980505945928400  0.6484462015301915
  0.4583695765882183  0.7457389883541765  0.8446240574607771
  0.4608415209398800  0.5049340123587314  0.3464105691011099
  0.0386072120912573  0.7545969573124154  0.1541548822101788
  0.0541071966508113  0.6236419745150812  0.5038860801898579
  0.4422724907782580  0.8742394712475701  0.9970363864240284
  0.4444858194799295  0.8767686936886960  0.4972746638123198
  0.0550907073176887  0.6266599368844581  0.0035612089854880
  0.4756376570420215  0.7323877659074824  0.6541765161786444
  0.0246581021664269  0.9816007170059322  0.8415917709879110
  0.0243183897103094  0.7679424119650022  0.3460958506167557
  0.4758593865346725  0.5171984277247645  0.1542985315821852
  0.2086683610643973  0.7900481873157119  0.5915441034416062
  0.2900796492628572  0.5400250348389903  0.9079761134960265
  0.2923581578607255  0.7095984975820713  0.4095180596641086
  0.2079525744439934  0.9590986588362540  0.0908347840718733
  0.6879820837830835  0.6558523629301831  0.7407645986472957
  0.8117965754520995  0.9050396326753329  0.7584063441019211
  0.8113333927344328  0.8442370510762629  0.2602912801906427
  0.6890131345238757  0.5932560944465237  0.2405117310461620
  0.7778559174343442  0.5516661790589410  0.5916026157946277
  0.7225175812512319  0.8025897850332910  0.9093162494551379
  0.7229722065844228  0.9489206464358233  0.4093049963542370
  0.7773742357883719  0.6986926366106445  0.0913115196916792
  0.5370867560124069  0.9945981772706673  0.6532519624464754
  0.9594110421664297  0.7429334759789725  0.8468923301779085
  0.9612968599348974  0.5041136358919545  0.3465010532302841
  0.5388051919847214  0.7547252954979911  0.1542732744926170
  0.5552647149354897  0.6234655582420245  0.5033704206844902
  0.9474415331492096  0.8761031410604687  0.9951567368706904
  0.9457520587418102  0.8777153102777788  0.4972161901057390
  0.5551038277121094  0.6265915644187245  0.0033711028308687
  0.9786715136050290  0.7329774356555916  0.6561359868388550
  0.5270985862227135  0.9800352531949486  0.8470922573578221
  0.5242082800508996  0.7677441118276676  0.3462914488119537
  0.9757252604145066  0.5167381748096886  0.1540485339580187
  0.7076786915103739  0.7908400227632981  0.5912924985321695
  0.7873195891751692  0.5394530784991218  0.9100238512863399
  0.7933347306806127  0.7097968330424038  0.4103262424350334
  0.7081561961010792  0.9591830489872564  0.0907675537770274
 
  0.00000000E+00  0.00000000E+00  0.00000000E+00
  0.00000000E+00  0.00000000E+00  0.00000000E+00
  0.00000000E+00  0.00000000E+00  0.00000000E+00
  0.00000000E+00  0.00000000E+00  0.00000000E+00
  0.00000000E+00  0.00000000E+00  0.00000000E+00
  0.00000000E+00  0.00000000E+00  0.00000000E+00
  0.00000000E+00  0.00000000E+00  0.00000000E+00
  0.00000000E+00  0.00000000E+00  0.00000000E+00
  0.00000000E+00  0.00000000E+00  0.00000000E+00
  0.00000000E+00  0.00000000E+00  0.00000000E+00
  0.00000000E+00  0.00000000E+00  0.00000000E+00
  0.00000000E+00  0.00000000E+00  0.00000000E+00
  0.00000000E+00  0.00000000E+00  0.00000000E+00
  0.00000000E+00  0.00000000E+00  0.00000000E+00
  0.00000000E+00  0.00000000E+00  0.00000000E+00
  0.00000000E+00  0.00000000E+00  0.00000000E+00
  0.00000000E+00  0.00000000E+00  0.00000000E+00
  0.00000000E+00  0.00000000E+00  0.00000000E+00
  0.00000000E+00  0.00000000E+00  0.00000000E+00
  0.00000000E+00  0.00000000E+00  0.00000000E+00
  0.00000000E+00  0.00000000E+00  0.00000000E+00
  0.00000000E+00  0.00000000E+00  0.00000000E+00
  0.00000000E+00  0.00000000E+00  0.00000000E+00
  0.00000000E+00  0.00000000E+00  0.00000000E+00
  0.00000000E+00  0.00000000E+00  0.00000000E+00
  0.00000000E+00  0.00000000E+00  0.00000000E+00
  0.00000000E+00  0.00000000E+00  0.00000000E+00
  0.00000000E+00  0.00000000E+00  0.00000000E+00
  0.00000000E+00  0.00000000E+00  0.00000000E+00
  0.00000000E+00  0.00000000E+00  0.00000000E+00
  0.00000000E+00  0.00000000E+00  0.00000000E+00
  0.00000000E+00  0.00000000E+00  0.00000000E+00
  0.00000000E+00  0.00000000E+00  0.00000000E+00
  0.00000000E+00  0.00000000E+00  0.00000000E+00
  0.00000000E+00  0.00000000E+00  0.00000000E+00
  0.00000000E+00  0.00000000E+00  0.00000000E+00
  0.00000000E+00  0.00000000E+00  0.00000000E+00
  0.00000000E+00  0.00000000E+00  0.00000000E+00
  0.00000000E+00  0.00000000E+00  0.00000000E+00
  0.00000000E+00  0.00000000E+00  0.00000000E+00
  0.00000000E+00  0.00000000E+00  0.00000000E+00
  0.00000000E+00  0.00000000E+00  0.00000000E+00
  0.00000000E+00  0.00000000E+00  0.00000000E+00
  0.00000000E+00  0.00000000E+00  0.00000000E+00
  0.00000000E+00  0.00000000E+00  0.00000000E+00
  0.00000000E+00  0.00000000E+00  0.00000000E+00
  0.00000000E+00  0.00000000E+00  0.00000000E+00
  0.00000000E+00  0.00000000E+00  0.00000000E+00
  0.00000000E+00  0.00000000E+00  0.00000000E+00
  0.00000000E+00  0.00000000E+00  0.00000000E+00
  0.00000000E+00  0.00000000E+00  0.00000000E+00
  0.00000000E+00  0.00000000E+00  0.00000000E+00
  0.00000000E+00  0.00000000E+00  0.00000000E+00
  0.00000000E+00  0.00000000E+00  0.00000000E+00
  0.00000000E+00  0.00000000E+00  0.00000000E+00
  0.00000000E+00  0.00000000E+00  0.00000000E+00
  0.00000000E+00  0.00000000E+00  0.00000000E+00
  0.00000000E+00  0.00000000E+00  0.00000000E+00
  0.00000000E+00  0.00000000E+00  0.00000000E+00
  0.00000000E+00  0.00000000E+00  0.00000000E+00
  0.00000000E+00  0.00000000E+00  0.00000000E+00
  0.00000000E+00  0.00000000E+00  0.00000000E+00
  0.00000000E+00  0.00000000E+00  0.00000000E+00
  0.00000000E+00  0.00000000E+00  0.00000000E+00
  0.00000000E+00  0.00000000E+00  0.00000000E+00
  0.00000000E+00  0.00000000E+00  0.00000000E+00
  0.00000000E+00  0.00000000E+00  0.00000000E+00
  0.00000000E+00  0.00000000E+00  0.00000000E+00
  0.00000000E+00  0.00000000E+00  0.00000000E+00
  0.00000000E+00  0.00000000E+00  0.00000000E+00
  0.00000000E+00  0.00000000E+00  0.00000000E+00
  0.00000000E+00  0.00000000E+00  0.00000000E+00
  0.00000000E+00  0.00000000E+00  0.00000000E+00
  0.00000000E+00  0.00000000E+00  0.00000000E+00
  0.00000000E+00  0.00000000E+00  0.00000000E+00
  0.00000000E+00  0.00000000E+00  0.00000000E+00
  0.00000000E+00  0.00000000E+00  0.00000000E+00
  0.00000000E+00  0.00000000E+00  0.00000000E+00
  0.00000000E+00  0.00000000E+00  0.00000000E+00
  0.00000000E+00  0.00000000E+00  0.00000000E+00
  0.00000000E+00  0.00000000E+00  0.00000000E+00
  0.00000000E+00  0.00000000E+00  0.00000000E+00
  0.00000000E+00  0.00000000E+00  0.00000000E+00
  0.00000000E+00  0.00000000E+00  0.00000000E+00
  0.00000000E+00  0.00000000E+00  0.00000000E+00
  0.00000000E+00  0.00000000E+00  0.00000000E+00
  0.00000000E+00  0.00000000E+00  0.00000000E+00
  0.00000000E+00  0.00000000E+00  0.00000000E+00
  0.00000000E+00  0.00000000E+00  0.00000000E+00
  0.00000000E+00  0.00000000E+00  0.00000000E+00
  0.00000000E+00  0.00000000E+00  0.00000000E+00
  0.00000000E+00  0.00000000E+00  0.00000000E+00
  0.00000000E+00  0.00000000E+00  0.00000000E+00
  0.00000000E+00  0.00000000E+00  0.00000000E+00
  0.00000000E+00  0.00000000E+00  0.00000000E+00
  0.00000000E+00  0.00000000E+00  0.00000000E+00
  0.00000000E+00  0.00000000E+00  0.00000000E+00
  0.00000000E+00  0.00000000E+00  0.00000000E+00
  0.00000000E+00  0.00000000E+00  0.00000000E+00
  0.00000000E+00  0.00000000E+00  0.00000000E+00
  0.00000000E+00  0.00000000E+00  0.00000000E+00
  0.00000000E+00  0.00000000E+00  0.00000000E+00
  0.00000000E+00  0.00000000E+00  0.00000000E+00
  0.00000000E+00  0.00000000E+00  0.00000000E+00
  0.00000000E+00  0.00000000E+00  0.00000000E+00
  0.00000000E+00  0.00000000E+00  0.00000000E+00
  0.00000000E+00  0.00000000E+00  0.00000000E+00
  0.00000000E+00  0.00000000E+00  0.00000000E+00
  0.00000000E+00  0.00000000E+00  0.00000000E+00
  0.00000000E+00  0.00000000E+00  0.00000000E+00
  0.00000000E+00  0.00000000E+00  0.00000000E+00
  0.00000000E+00  0.00000000E+00  0.00000000E+00
  0.00000000E+00  0.00000000E+00  0.00000000E+00
  0.00000000E+00  0.00000000E+00  0.00000000E+00
  0.00000000E+00  0.00000000E+00  0.00000000E+00
  0.00000000E+00  0.00000000E+00  0.00000000E+00
  0.00000000E+00  0.00000000E+00  0.00000000E+00
  0.00000000E+00  0.00000000E+00  0.00000000E+00
  0.00000000E+00  0.00000000E+00  0.00000000E+00
  0.00000000E+00  0.00000000E+00  0.00000000E+00
  0.00000000E+00  0.00000000E+00  0.00000000E+00
  0.00000000E+00  0.00000000E+00  0.00000000E+00
  0.00000000E+00  0.00000000E+00  0.00000000E+00
  0.00000000E+00  0.00000000E+00  0.00000000E+00
  0.00000000E+00  0.00000000E+00  0.00000000E+00
  0.00000000E+00  0.00000000E+00  0.00000000E+00
  0.00000000E+00  0.00000000E+00  0.00000000E+00
  0.00000000E+00  0.00000000E+00  0.00000000E+00
