supercell of natacl6_p21c.cif           
   1.00000000000000     
    12.8086700406632197    0.0000004227264436   -0.0315492974735766
     0.0000004651105324   13.6960863482870359   -0.0000019106395650
    -0.3327533513840475   -0.0000026420200669   18.8435734257652570
   Na   Ta   Cl
    17    15    96
Direct
  0.4082582850381655  0.0854141027453963  0.7487596202469931
  0.0906034556994655  0.3470464935510194  0.7474348897060423
  0.1101028500970713  0.4131860505686049  0.2546900456878660
  0.3978840100071963  0.1636966697269955  0.2476778529022496
  0.8846980615756976  0.1058825573055202  0.7411419931042005
  0.6060474832603830  0.3453699812255024  0.7527985117422844
  0.5982520128912370  0.4109947646659933  0.2546753510965729
  0.8845585402363696  0.1801177937012710  0.2323734177431689
  0.4030675359983036  0.5876538084027274  0.7477598415969879
  0.1185849542863480  0.8214622042251136  0.7888553864249488
  0.1264439396184827  0.9027534436654534  0.2386086747944205
  0.3968439981296967  0.6505846402913207  0.2450099789278823
  0.8928434240212439  0.6009490283653847  0.7495434730994575
  0.6132536573488210  0.8456670292219854  0.7526814736480745
  0.6066395380863909  0.9072907016838272  0.2397553073975232
  0.8905889284086683  0.6567429320943674  0.2378962563830740
  0.1621426741450946  0.9435458775895142  0.5227440273952695
  0.3632089252894204  0.3818922770911044  0.8818678150275119
  0.3671136806597630  0.3642280645002245  0.3820617649531002
  0.1266998636477368  0.1124217332953563  0.1152494586069110
  0.6254664060779049  0.1434661382246816  0.6159919111209220
  0.8697434624639584  0.3916740719611909  0.8830884029474149
  0.8674853164531768  0.3724989893209099  0.3823397581004642
  0.6267531683075234  0.1132891911622806  0.1153905853613395
  0.1350052807559834  0.6410681624007921  0.6196504394537712
  0.3811744708095759  0.8866442237643426  0.8892717716459160
  0.3878228155845349  0.8618277620912380  0.3788319222437053
  0.1291622473283667  0.6103116900311107  0.1147096044697236
  0.6290655185487708  0.6423526443523926  0.6173997428293703
  0.8669110210045261  0.8929684048743027  0.8922751212831557
  0.8702438163180872  0.8552329574821442  0.4019929365712898
  0.6284534191571680  0.6088757943445131  0.1139464516934083
  0.1660102392808511  0.1038817813726922  0.7472805466590557
  0.3033428771096567  0.3944711513584949  0.7551277484951200
  0.3169478427482701  0.3555464606246304  0.2543964861886323
  0.1951144827290463  0.0987547130070752  0.2387042607225496
  0.2693143574015480  0.1075205296621462  0.5577059892972969
  0.2152204361097887  0.2872674368260633  0.9017736117250692
  0.2175115166405348  0.4557619751920754  0.4038900141096917
  0.2757495192680963  0.1968432272601177  0.0849339668592535
  0.0341553284209084  0.5017756544122278  0.6513782971540536
  0.4578671372462466  0.2379314233725651  0.8437478703995254
  0.4780393955262454  0.0078254239750422  0.3437979927958850
  0.0450223364076692  0.2627528976509126  0.1529692114028478
  0.0249006563664480  0.1034006182965825  0.4733475293934504
  0.4335305902888749  0.3652932856909956  0.9941245202788593
  0.4306947557229392  0.3738744031477879  0.4967845385117187
  0.0426047643744809  0.1252649294929711  0.0071913162853505
  0.4717369816466999  0.2311882682082285  0.6536708507239766
  0.0220228673358633  0.4831034720959408  0.8437690689028301
  0.0156619028898319  0.2783135048322833  0.3396450565154367
  0.4724095801586046  0.0249277293042951  0.1534935668711768
  0.1148785139141992  0.1786722301439312  0.5829445631673451
  0.2981553377753769  0.0350581271014647  0.9114162746813292
  0.2818890080943817  0.2158654882810822  0.3964457042724803
  0.2119102815148395  0.4639278430674665  0.0908209301753615
  0.6798669066517746  0.1554636785092498  0.7428349920828126
  0.8116100716351866  0.4074056123482137  0.7571107025383981
  0.8046430546024510  0.3611315666244508  0.2575452424010223
  0.6868089940878193  0.1013818494477334  0.2417510202889162
  0.7792287982938575  0.0541900282898027  0.5975436971143253
  0.7215534635867655  0.2999418480332423  0.9060731981556671
  0.7203784835040352  0.4636020500774904  0.4090403025154714
  0.7782753492597578  0.2007425894520054  0.0903414576402426
  0.5413179444197738  0.4933123577362224  0.6521105457966172
  0.9589480229923524  0.2435562103686806  0.8414019211730377
  0.9630803832859769  0.0330797016293616  0.3782463673225038
  0.5393190029618751  0.2604853539038032  0.1519274302702129
  0.5593007443034637  0.1248929708413300  0.5026812775520355
  0.9459212577877025  0.3717546244163188  0.9933684838934624
  0.9467825739547777  0.3878422756850526  0.4922178758067872
  0.5586894279932650  0.1264630735512426  0.0024342319318862
  0.9719394527977201  0.2457263530336888  0.6412754119264790
  0.5157506895365529  0.4750559307485602  0.8447608049230340
  0.5219712678243340  0.2734938029244489  0.3472795368952077
  0.9765139204128701  0.0247753106018038  0.1658736473249789
  0.7053337919364466  0.2921849180843665  0.5934300663756673
  0.7880821518255487  0.0425137810165381  0.9126332791001843
  0.7842245119929174  0.2257221438912111  0.4074196299581843
  0.7125124128221216  0.4621965655609159  0.0924072107161535
  0.1988918978496699  0.6456168287016908  0.7435762544409386
  0.3169293698212456  0.8981392867458453  0.7638288854281612
  0.3318206716118368  0.8445135885929176  0.2537080587924834
  0.1890726860064120  0.6005143057441558  0.2408164843204830
  0.2782540169421353  0.5468841341141584  0.5913137697491635
  0.2318572762213833  0.7959669775020757  0.9171511381221222
  0.2332050941345116  0.9587995097246989  0.3895291359536017
  0.2754496556872255  0.7047586414714075  0.0918174804552478
  0.0903534168663782  0.9997784202193003  0.6925993135723090
  0.4659220536850555  0.7399413049115537  0.8492929785288084
  0.4604857077055442  0.5117634346998443  0.3493488636494391
  0.0348972014506970  0.7560443774364316  0.1566806246754169
  0.0621147555327752  0.6387429418205386  0.5070479224413091
  0.4554305366939033  0.8727974984919200  0.0002216073247894
  0.4391986621741495  0.8862906512960578  0.4954573559890250
  0.0544604022208048  0.6296242416984867  0.0040662057675718
  0.4770576038445711  0.7316475611864277  0.6573832217042224
  0.0255959350098749  0.9764022279598379  0.8612883840037355
  0.0309093346690119  0.7925957779210435  0.3579026995820129
  0.4773834902798342  0.5165495898931809  0.1525730507356400
  0.2289249988774174  0.7887021973417347  0.5991201477809014
  0.2814861376201137  0.5293464871662721  0.9055568410367130
  0.2989269240933439  0.7183317079784430  0.4055404556779720
  0.1993842385324882  0.9594042111558139  0.0910740519015150
  0.6870851498472632  0.6533347859021816  0.7432833004110648
  0.8192273320364265  0.9111053233813209  0.7635961579725574
  0.8256632572067630  0.8742962385056217  0.2781478632850352
  0.6864661460142472  0.6003557117356024  0.2413065492782209
  0.7803602451728651  0.5557181555497195  0.5920980504334779
  0.7152292579433563  0.8033405024322491  0.9096613115086285
  0.7270102297987577  0.9478536311502594  0.4297653858887927
  0.7764902297375116  0.7030007667842355  0.0929219118572107
  0.5366569815411850  0.9937306259315761  0.6513863231984658
  0.9515930401417805  0.7409834597339682  0.8549680872775767
  0.9584258990221670  0.5193947203085898  0.3436972893216819
  0.5356589271023893  0.7544803834278184  0.1523164145942815
  0.5568269151886156  0.6289243346956894  0.5049809645947505
  0.9307813751750089  0.8726760929742952  0.0059611699895612
  0.9474349627110854  0.8746138408672408  0.5143059104144854
  0.5572984221408035  0.6243882605368682  0.0020209452374687
  0.9946525312007992  0.7445207939027441  0.6644053686510176
  0.5304620680212508  0.9785490712823659  0.8475259391205299
  0.5394083605703202  0.7711753820017364  0.3477007444270015
  0.9789379586789906  0.5166943267587953  0.1533012382980488
  0.7089383306295787  0.7931905795799850  0.5971062017015143
  0.7886539235942749  0.5386530208229416  0.9082860699834043
  0.7972893520851585  0.7067066056695737  0.4183920981251106
  0.7061824150509040  0.9611463438061847  0.0976998571278642
 
  0.00000000E+00  0.00000000E+00  0.00000000E+00
  0.00000000E+00  0.00000000E+00  0.00000000E+00
  0.00000000E+00  0.00000000E+00  0.00000000E+00
  0.00000000E+00  0.00000000E+00  0.00000000E+00
  0.00000000E+00  0.00000000E+00  0.00000000E+00
  0.00000000E+00  0.00000000E+00  0.00000000E+00
  0.00000000E+00  0.00000000E+00  0.00000000E+00
  0.00000000E+00  0.00000000E+00  0.00000000E+00
  0.00000000E+00  0.00000000E+00  0.00000000E+00
  0.00000000E+00  0.00000000E+00  0.00000000E+00
  0.00000000E+00  0.00000000E+00  0.00000000E+00
  0.00000000E+00  0.00000000E+00  0.00000000E+00
  0.00000000E+00  0.00000000E+00  0.00000000E+00
  0.00000000E+00  0.00000000E+00  0.00000000E+00
  0.00000000E+00  0.00000000E+00  0.00000000E+00
  0.00000000E+00  0.00000000E+00  0.00000000E+00
  0.00000000E+00  0.00000000E+00  0.00000000E+00
  0.00000000E+00  0.00000000E+00  0.00000000E+00
  0.00000000E+00  0.00000000E+00  0.00000000E+00
  0.00000000E+00  0.00000000E+00  0.00000000E+00
  0.00000000E+00  0.00000000E+00  0.00000000E+00
  0.00000000E+00  0.00000000E+00  0.00000000E+00
  0.00000000E+00  0.00000000E+00  0.00000000E+00
  0.00000000E+00  0.00000000E+00  0.00000000E+00
  0.00000000E+00  0.00000000E+00  0.00000000E+00
  0.00000000E+00  0.00000000E+00  0.00000000E+00
  0.00000000E+00  0.00000000E+00  0.00000000E+00
  0.00000000E+00  0.00000000E+00  0.00000000E+00
  0.00000000E+00  0.00000000E+00  0.00000000E+00
  0.00000000E+00  0.00000000E+00  0.00000000E+00
  0.00000000E+00  0.00000000E+00  0.00000000E+00
  0.00000000E+00  0.00000000E+00  0.00000000E+00
  0.00000000E+00  0.00000000E+00  0.00000000E+00
  0.00000000E+00  0.00000000E+00  0.00000000E+00
  0.00000000E+00  0.00000000E+00  0.00000000E+00
  0.00000000E+00  0.00000000E+00  0.00000000E+00
  0.00000000E+00  0.00000000E+00  0.00000000E+00
  0.00000000E+00  0.00000000E+00  0.00000000E+00
  0.00000000E+00  0.00000000E+00  0.00000000E+00
  0.00000000E+00  0.00000000E+00  0.00000000E+00
  0.00000000E+00  0.00000000E+00  0.00000000E+00
  0.00000000E+00  0.00000000E+00  0.00000000E+00
  0.00000000E+00  0.00000000E+00  0.00000000E+00
  0.00000000E+00  0.00000000E+00  0.00000000E+00
  0.00000000E+00  0.00000000E+00  0.00000000E+00
  0.00000000E+00  0.00000000E+00  0.00000000E+00
  0.00000000E+00  0.00000000E+00  0.00000000E+00
  0.00000000E+00  0.00000000E+00  0.00000000E+00
  0.00000000E+00  0.00000000E+00  0.00000000E+00
  0.00000000E+00  0.00000000E+00  0.00000000E+00
  0.00000000E+00  0.00000000E+00  0.00000000E+00
  0.00000000E+00  0.00000000E+00  0.00000000E+00
  0.00000000E+00  0.00000000E+00  0.00000000E+00
  0.00000000E+00  0.00000000E+00  0.00000000E+00
  0.00000000E+00  0.00000000E+00  0.00000000E+00
  0.00000000E+00  0.00000000E+00  0.00000000E+00
  0.00000000E+00  0.00000000E+00  0.00000000E+00
  0.00000000E+00  0.00000000E+00  0.00000000E+00
  0.00000000E+00  0.00000000E+00  0.00000000E+00
  0.00000000E+00  0.00000000E+00  0.00000000E+00
  0.00000000E+00  0.00000000E+00  0.00000000E+00
  0.00000000E+00  0.00000000E+00  0.00000000E+00
  0.00000000E+00  0.00000000E+00  0.00000000E+00
  0.00000000E+00  0.00000000E+00  0.00000000E+00
  0.00000000E+00  0.00000000E+00  0.00000000E+00
  0.00000000E+00  0.00000000E+00  0.00000000E+00
  0.00000000E+00  0.00000000E+00  0.00000000E+00
  0.00000000E+00  0.00000000E+00  0.00000000E+00
  0.00000000E+00  0.00000000E+00  0.00000000E+00
  0.00000000E+00  0.00000000E+00  0.00000000E+00
  0.00000000E+00  0.00000000E+00  0.00000000E+00
  0.00000000E+00  0.00000000E+00  0.00000000E+00
  0.00000000E+00  0.00000000E+00  0.00000000E+00
  0.00000000E+00  0.00000000E+00  0.00000000E+00
  0.00000000E+00  0.00000000E+00  0.00000000E+00
  0.00000000E+00  0.00000000E+00  0.00000000E+00
  0.00000000E+00  0.00000000E+00  0.00000000E+00
  0.00000000E+00  0.00000000E+00  0.00000000E+00
  0.00000000E+00  0.00000000E+00  0.00000000E+00
  0.00000000E+00  0.00000000E+00  0.00000000E+00
  0.00000000E+00  0.00000000E+00  0.00000000E+00
  0.00000000E+00  0.00000000E+00  0.00000000E+00
  0.00000000E+00  0.00000000E+00  0.00000000E+00
  0.00000000E+00  0.00000000E+00  0.00000000E+00
  0.00000000E+00  0.00000000E+00  0.00000000E+00
  0.00000000E+00  0.00000000E+00  0.00000000E+00
  0.00000000E+00  0.00000000E+00  0.00000000E+00
  0.00000000E+00  0.00000000E+00  0.00000000E+00
  0.00000000E+00  0.00000000E+00  0.00000000E+00
  0.00000000E+00  0.00000000E+00  0.00000000E+00
  0.00000000E+00  0.00000000E+00  0.00000000E+00
  0.00000000E+00  0.00000000E+00  0.00000000E+00
  0.00000000E+00  0.00000000E+00  0.00000000E+00
  0.00000000E+00  0.00000000E+00  0.00000000E+00
  0.00000000E+00  0.00000000E+00  0.00000000E+00
  0.00000000E+00  0.00000000E+00  0.00000000E+00
  0.00000000E+00  0.00000000E+00  0.00000000E+00
  0.00000000E+00  0.00000000E+00  0.00000000E+00
  0.00000000E+00  0.00000000E+00  0.00000000E+00
  0.00000000E+00  0.00000000E+00  0.00000000E+00
  0.00000000E+00  0.00000000E+00  0.00000000E+00
  0.00000000E+00  0.00000000E+00  0.00000000E+00
  0.00000000E+00  0.00000000E+00  0.00000000E+00
  0.00000000E+00  0.00000000E+00  0.00000000E+00
  0.00000000E+00  0.00000000E+00  0.00000000E+00
  0.00000000E+00  0.00000000E+00  0.00000000E+00
  0.00000000E+00  0.00000000E+00  0.00000000E+00
  0.00000000E+00  0.00000000E+00  0.00000000E+00
  0.00000000E+00  0.00000000E+00  0.00000000E+00
  0.00000000E+00  0.00000000E+00  0.00000000E+00
  0.00000000E+00  0.00000000E+00  0.00000000E+00
  0.00000000E+00  0.00000000E+00  0.00000000E+00
  0.00000000E+00  0.00000000E+00  0.00000000E+00
  0.00000000E+00  0.00000000E+00  0.00000000E+00
  0.00000000E+00  0.00000000E+00  0.00000000E+00
  0.00000000E+00  0.00000000E+00  0.00000000E+00
  0.00000000E+00  0.00000000E+00  0.00000000E+00
  0.00000000E+00  0.00000000E+00  0.00000000E+00
  0.00000000E+00  0.00000000E+00  0.00000000E+00
  0.00000000E+00  0.00000000E+00  0.00000000E+00
  0.00000000E+00  0.00000000E+00  0.00000000E+00
  0.00000000E+00  0.00000000E+00  0.00000000E+00
  0.00000000E+00  0.00000000E+00  0.00000000E+00
  0.00000000E+00  0.00000000E+00  0.00000000E+00
  0.00000000E+00  0.00000000E+00  0.00000000E+00
  0.00000000E+00  0.00000000E+00  0.00000000E+00
  0.00000000E+00  0.00000000E+00  0.00000000E+00
  0.00000000E+00  0.00000000E+00  0.00000000E+00
