supercell of natacl6_p21c.cif           
   1.00000000000000     
    12.8086700406632197    0.0000004227264436   -0.0315492974735766
     0.0000004651105324   13.6960863482870359   -0.0000019106395650
    -0.3327533513840475   -0.0000026420200669   18.8435734257652570
   Na   Ta   Cl
    17    16    96
Direct
  0.3951633640582273  0.1025768705556374  0.7548272371844291
  0.1078864674277966  0.3450677264545590  0.7596153450758862
  0.1034380392008458  0.4058302545758039  0.2550606628002257
  0.3936014534448873  0.1579776405598849  0.2442919459648607
  0.8961265303219790  0.0964630127138193  0.7506318072702669
  0.6077956420234258  0.3467132315727923  0.7575217593398520
  0.6033512040408908  0.4064952553036747  0.2546696050525910
  0.8946352349066160  0.1548856697266032  0.2480536206783981
  0.3916862682929434  0.5930897495276639  0.7521383248134796
  0.0979436439598373  0.8472973928464285  0.7538886328300549
  0.0979610530960784  0.9056426587224635  0.2528953789702015
  0.3938431001974863  0.6526361724494691  0.2427560990841116
  0.8969037916984064  0.5967040479619428  0.7557143963688731
  0.6135424666803928  0.8416832012703281  0.7596150307847509
  0.6083479793420778  0.9048811924977116  0.2483766905432390
  0.8954237469699322  0.6553249016253062  0.2483724158803611
  0.3658742689790202  0.8866389560545684  0.6172704541196978
  0.1232066254159818  0.1494529788589674  0.6152346549248904
  0.3722278210145760  0.3941415531472074  0.8870020534666736
  0.3693488351097187  0.3587849492331756  0.3852128958053811
  0.1281234620157718  0.1091769702399006  0.1163842238029957
  0.6282599609518371  0.1446995387745602  0.6157134176638479
  0.8729411972152121  0.3930247677045671  0.8867837597158896
  0.8683447447743475  0.3578863177107223  0.3846444944501712
  0.6289457366093743  0.1101471905607383  0.1150127965910102
  0.1189311311970087  0.6391772404437432  0.6133650031016700
  0.3722116816020744  0.8939515133651028  0.8879510044678582
  0.3733892339455096  0.8576246628639339  0.3802268980225776
  0.1275656180924400  0.6084788156869578  0.1164118257725804
  0.6304679493181524  0.6367837066811646  0.6150652509037968
  0.8729186740714994  0.8944888107154796  0.8866935179926756
  0.8700255674483230  0.8591635867696965  0.3857070525808268
  0.6297354250059612  0.6085899155814616  0.1141056541245717
  0.1887658466228288  0.1592542642181911  0.7396581265230679
  0.3124043552233715  0.4063615155496123  0.7604618808361892
  0.3091563941056705  0.3445778553649745  0.2599026291345012
  0.1886969657099797  0.0921795675081185  0.2416031553785629
  0.2791985794015019  0.0654395746573897  0.5870563691016386
  0.2233342374333063  0.3027881367802365  0.9097437388843304
  0.2198555011014918  0.4492157072766929  0.4089271103406844
  0.2778794339686996  0.1991614074796928  0.0929515016647642
  0.0384735765169353  0.4937831706916995  0.6568076584554916
  0.4637673194770144  0.2480413577180727  0.8488890311663297
  0.4607938950765984  0.0044175161281217  0.3419403509040890
  0.0396088162063890  0.2555281607108597  0.1560178554230234
  0.0516733820717405  0.1285296837162306  0.5039228230586303
  0.4434035681361763  0.3772107517893701  0.9987256691387927
  0.4417238910240471  0.3768114937360565  0.4973587515077895
  0.0556766986092398  0.1283973898079935  0.0045678131462381
  0.4765463691494460  0.2334081076328687  0.6570207883010539
  0.0264861753246990  0.4838814718856881  0.8481678767866043
  0.0215195725511066  0.2674410953080795  0.3467772020067201
  0.4758394255440166  0.0192199354690672  0.1534778788755560
  0.2020952471872093  0.2982649828428521  0.5917021774751632
  0.2929619739722185  0.0436433029964860  0.9092620904257984
  0.2894395199072477  0.2099546668755679  0.4093682919023891
  0.2072520954488510  0.4598976399660373  0.0920271709279845
  0.6907611166592247  0.1587010906988056  0.7403301281738806
  0.8139862983073414  0.4071948401020435  0.7604806640703998
  0.8090807255199621  0.3433629655257420  0.2595141024175902
  0.6887897354265817  0.0944717342568282  0.2403006328255444
  0.7745929372791238  0.0511538236780211  0.5916696075987886
  0.7230690757142426  0.3035353989963241  0.9097011049766976
  0.7189345777849070  0.4484303839233377  0.4083340848557455
  0.7786342886760593  0.1994451079942152  0.0911974566923064
  0.5387719181598669  0.4932846109231619  0.6551379394463908
  0.9622592614291108  0.2462468637532496  0.8478331738758271
  0.9614066089786775  0.0055347061011730  0.3483778607460692
  0.5402835187150572  0.2567271656300036  0.1541451286156956
  0.5497708163403843  0.1214037634443628  0.5065122223446608
  0.9448021365220285  0.3750906740016333  0.9983709560574283
  0.9402040653764701  0.3758240333289535  0.4971075433414285
  0.5561440818922989  0.1284216524444517  0.0031368814397581
  0.9721365490394831  0.2357217449961837  0.6562811304766782
  0.5244405747701393  0.4851060083550820  0.8473769093382657
  0.5214608516366539  0.2674934721904307  0.3464269619735489
  0.9748021121615622  0.0187508046717539  0.1547686624685696
  0.7063804308195998  0.2915524219986594  0.5885449832548204
  0.7917694780778604  0.0430740537584740  0.9085132376855753
  0.7887456397852048  0.2089106330042512  0.4088387222180714
  0.7092829943375492  0.4601277909819856  0.0895040605427297
  0.1900493525560876  0.6645390666810727  0.7354129619870093
  0.3058303785512493  0.9124337779874665  0.7595138621097632
  0.3057445416068987  0.8428955570713583  0.2592070482115574
  0.1878426029354472  0.5941405671725732  0.2419367769576866
  0.2726716438093533  0.5583763545605080  0.5872809898029203
  0.2223020902621755  0.8043025889796027  0.9091703816023085
  0.2290433998317596  0.9485116284490545  0.4134399696188424
  0.2772751571124203  0.6989864783270363  0.0930205515168083
  0.0421099395323452  0.9985907931812719  0.6533175583522208
  0.4585475625567028  0.7483687180309886  0.8459307249680279
  0.4585014857835645  0.5056029648080838  0.3463565973191294
  0.0382122712815018  0.7552113845998250  0.1554485015306284
  0.0425320324991176  0.6181527274286722  0.5035689556459033
  0.4435454514556270  0.8757128900866604  0.9988832841387492
  0.4622910436761813  0.8747186283446027  0.4902891988591662
  0.0552793176761242  0.6278184161175560  0.0046189898877955
  0.4751646656192179  0.7278710774304145  0.6603771538094207
  0.0255130120799478  0.9852799550669644  0.8478292895780797
  0.0238742299732451  0.7683322741046084  0.3489666255569972
  0.4776028721937422  0.5167370199376577  0.1531758599358781
  0.1867641776787607  0.7944312490464398  0.5805140150213646
  0.2915023506034089  0.5433227716503239  0.9084908831049034
  0.2955454482739128  0.7104568459188982  0.4109000439355697
  0.2066194902201417  0.9598632627663051  0.0914379188746182
  0.6910625524112035  0.6525754273246989  0.7401138762086887
  0.8156407536765471  0.9075083168267497  0.7597707786852368
  0.8138421145192325  0.8446592885457704  0.2595401643010788
  0.6894213232346047  0.5941139429344986  0.2395110328519365
  0.7772522078039117  0.5485709411812252  0.5879809159655380
  0.7229489856421836  0.8032241848138924  0.9079278648559637
  0.7201034613711172  0.9497936064383410  0.4069753208506839
  0.7782866839969671  0.6999075738452447  0.0909317781257073
  0.5401485488785838  0.9949523784337302  0.6602928833411710
  0.9636241570745696  0.7476366045340654  0.8488358984369810
  0.9579972326846473  0.5047144948357172  0.3465510370632927
  0.5386614346781897  0.7549233751147639  0.1526170548737085
  0.5503737928252050  0.6237969516120572  0.5055157910815282
  0.9429746344673262  0.8768628542319945  0.9986948434523271
  0.9384027542090365  0.8772382219574055  0.4988589635305445
  0.5564569204689107  0.6273727241568139  0.0023773300185326
  0.9689629843774057  0.7297488900636466  0.6560390310746484
  0.5236629759163876  0.9830066038043270  0.8466214986714533
  0.5234167597087520  0.7657201093997088  0.3399115236039876
  0.9754011414453458  0.5176781788683087  0.1552915704628361
  0.7035474704013254  0.7888203702576533  0.5925123211999974
  0.7938485044654655  0.5428183451297741  0.9089951792079987
  0.7892901575907345  0.7102115903152821  0.4085982222648994
  0.7074333607281815  0.9603799312992507  0.0909134152760416
 
  0.00000000E+00  0.00000000E+00  0.00000000E+00
  0.00000000E+00  0.00000000E+00  0.00000000E+00
  0.00000000E+00  0.00000000E+00  0.00000000E+00
  0.00000000E+00  0.00000000E+00  0.00000000E+00
  0.00000000E+00  0.00000000E+00  0.00000000E+00
  0.00000000E+00  0.00000000E+00  0.00000000E+00
  0.00000000E+00  0.00000000E+00  0.00000000E+00
  0.00000000E+00  0.00000000E+00  0.00000000E+00
  0.00000000E+00  0.00000000E+00  0.00000000E+00
  0.00000000E+00  0.00000000E+00  0.00000000E+00
  0.00000000E+00  0.00000000E+00  0.00000000E+00
  0.00000000E+00  0.00000000E+00  0.00000000E+00
  0.00000000E+00  0.00000000E+00  0.00000000E+00
  0.00000000E+00  0.00000000E+00  0.00000000E+00
  0.00000000E+00  0.00000000E+00  0.00000000E+00
  0.00000000E+00  0.00000000E+00  0.00000000E+00
  0.00000000E+00  0.00000000E+00  0.00000000E+00
  0.00000000E+00  0.00000000E+00  0.00000000E+00
  0.00000000E+00  0.00000000E+00  0.00000000E+00
  0.00000000E+00  0.00000000E+00  0.00000000E+00
  0.00000000E+00  0.00000000E+00  0.00000000E+00
  0.00000000E+00  0.00000000E+00  0.00000000E+00
  0.00000000E+00  0.00000000E+00  0.00000000E+00
  0.00000000E+00  0.00000000E+00  0.00000000E+00
  0.00000000E+00  0.00000000E+00  0.00000000E+00
  0.00000000E+00  0.00000000E+00  0.00000000E+00
  0.00000000E+00  0.00000000E+00  0.00000000E+00
  0.00000000E+00  0.00000000E+00  0.00000000E+00
  0.00000000E+00  0.00000000E+00  0.00000000E+00
  0.00000000E+00  0.00000000E+00  0.00000000E+00
  0.00000000E+00  0.00000000E+00  0.00000000E+00
  0.00000000E+00  0.00000000E+00  0.00000000E+00
  0.00000000E+00  0.00000000E+00  0.00000000E+00
  0.00000000E+00  0.00000000E+00  0.00000000E+00
  0.00000000E+00  0.00000000E+00  0.00000000E+00
  0.00000000E+00  0.00000000E+00  0.00000000E+00
  0.00000000E+00  0.00000000E+00  0.00000000E+00
  0.00000000E+00  0.00000000E+00  0.00000000E+00
  0.00000000E+00  0.00000000E+00  0.00000000E+00
  0.00000000E+00  0.00000000E+00  0.00000000E+00
  0.00000000E+00  0.00000000E+00  0.00000000E+00
  0.00000000E+00  0.00000000E+00  0.00000000E+00
  0.00000000E+00  0.00000000E+00  0.00000000E+00
  0.00000000E+00  0.00000000E+00  0.00000000E+00
  0.00000000E+00  0.00000000E+00  0.00000000E+00
  0.00000000E+00  0.00000000E+00  0.00000000E+00
  0.00000000E+00  0.00000000E+00  0.00000000E+00
  0.00000000E+00  0.00000000E+00  0.00000000E+00
  0.00000000E+00  0.00000000E+00  0.00000000E+00
  0.00000000E+00  0.00000000E+00  0.00000000E+00
  0.00000000E+00  0.00000000E+00  0.00000000E+00
  0.00000000E+00  0.00000000E+00  0.00000000E+00
  0.00000000E+00  0.00000000E+00  0.00000000E+00
  0.00000000E+00  0.00000000E+00  0.00000000E+00
  0.00000000E+00  0.00000000E+00  0.00000000E+00
  0.00000000E+00  0.00000000E+00  0.00000000E+00
  0.00000000E+00  0.00000000E+00  0.00000000E+00
  0.00000000E+00  0.00000000E+00  0.00000000E+00
  0.00000000E+00  0.00000000E+00  0.00000000E+00
  0.00000000E+00  0.00000000E+00  0.00000000E+00
  0.00000000E+00  0.00000000E+00  0.00000000E+00
  0.00000000E+00  0.00000000E+00  0.00000000E+00
  0.00000000E+00  0.00000000E+00  0.00000000E+00
  0.00000000E+00  0.00000000E+00  0.00000000E+00
  0.00000000E+00  0.00000000E+00  0.00000000E+00
  0.00000000E+00  0.00000000E+00  0.00000000E+00
  0.00000000E+00  0.00000000E+00  0.00000000E+00
  0.00000000E+00  0.00000000E+00  0.00000000E+00
  0.00000000E+00  0.00000000E+00  0.00000000E+00
  0.00000000E+00  0.00000000E+00  0.00000000E+00
  0.00000000E+00  0.00000000E+00  0.00000000E+00
  0.00000000E+00  0.00000000E+00  0.00000000E+00
  0.00000000E+00  0.00000000E+00  0.00000000E+00
  0.00000000E+00  0.00000000E+00  0.00000000E+00
  0.00000000E+00  0.00000000E+00  0.00000000E+00
  0.00000000E+00  0.00000000E+00  0.00000000E+00
  0.00000000E+00  0.00000000E+00  0.00000000E+00
  0.00000000E+00  0.00000000E+00  0.00000000E+00
  0.00000000E+00  0.00000000E+00  0.00000000E+00
  0.00000000E+00  0.00000000E+00  0.00000000E+00
  0.00000000E+00  0.00000000E+00  0.00000000E+00
  0.00000000E+00  0.00000000E+00  0.00000000E+00
  0.00000000E+00  0.00000000E+00  0.00000000E+00
  0.00000000E+00  0.00000000E+00  0.00000000E+00
  0.00000000E+00  0.00000000E+00  0.00000000E+00
  0.00000000E+00  0.00000000E+00  0.00000000E+00
  0.00000000E+00  0.00000000E+00  0.00000000E+00
  0.00000000E+00  0.00000000E+00  0.00000000E+00
  0.00000000E+00  0.00000000E+00  0.00000000E+00
  0.00000000E+00  0.00000000E+00  0.00000000E+00
  0.00000000E+00  0.00000000E+00  0.00000000E+00
  0.00000000E+00  0.00000000E+00  0.00000000E+00
  0.00000000E+00  0.00000000E+00  0.00000000E+00
  0.00000000E+00  0.00000000E+00  0.00000000E+00
  0.00000000E+00  0.00000000E+00  0.00000000E+00
  0.00000000E+00  0.00000000E+00  0.00000000E+00
  0.00000000E+00  0.00000000E+00  0.00000000E+00
  0.00000000E+00  0.00000000E+00  0.00000000E+00
  0.00000000E+00  0.00000000E+00  0.00000000E+00
  0.00000000E+00  0.00000000E+00  0.00000000E+00
  0.00000000E+00  0.00000000E+00  0.00000000E+00
  0.00000000E+00  0.00000000E+00  0.00000000E+00
  0.00000000E+00  0.00000000E+00  0.00000000E+00
  0.00000000E+00  0.00000000E+00  0.00000000E+00
  0.00000000E+00  0.00000000E+00  0.00000000E+00
  0.00000000E+00  0.00000000E+00  0.00000000E+00
  0.00000000E+00  0.00000000E+00  0.00000000E+00
  0.00000000E+00  0.00000000E+00  0.00000000E+00
  0.00000000E+00  0.00000000E+00  0.00000000E+00
  0.00000000E+00  0.00000000E+00  0.00000000E+00
  0.00000000E+00  0.00000000E+00  0.00000000E+00
  0.00000000E+00  0.00000000E+00  0.00000000E+00
  0.00000000E+00  0.00000000E+00  0.00000000E+00
  0.00000000E+00  0.00000000E+00  0.00000000E+00
  0.00000000E+00  0.00000000E+00  0.00000000E+00
  0.00000000E+00  0.00000000E+00  0.00000000E+00
  0.00000000E+00  0.00000000E+00  0.00000000E+00
  0.00000000E+00  0.00000000E+00  0.00000000E+00
  0.00000000E+00  0.00000000E+00  0.00000000E+00
  0.00000000E+00  0.00000000E+00  0.00000000E+00
  0.00000000E+00  0.00000000E+00  0.00000000E+00
  0.00000000E+00  0.00000000E+00  0.00000000E+00
  0.00000000E+00  0.00000000E+00  0.00000000E+00
  0.00000000E+00  0.00000000E+00  0.00000000E+00
  0.00000000E+00  0.00000000E+00  0.00000000E+00
  0.00000000E+00  0.00000000E+00  0.00000000E+00
  0.00000000E+00  0.00000000E+00  0.00000000E+00
  0.00000000E+00  0.00000000E+00  0.00000000E+00
  0.00000000E+00  0.00000000E+00  0.00000000E+00
