supercell of natacl6_p21c.cif           
   1.00000000000000     
    12.8086700406632197    0.0000004227264436   -0.0315492974735766
     0.0000004651105324   13.6960863482870359   -0.0000019106395650
    -0.3327533513840475   -0.0000026420200669   18.8435734257652570
   Na   Zr   Ta   Cl
    16     1    15    96
Direct
  0.3822392487821062  0.0919552839488418  0.7333955003726089
  0.1070761930637829  0.3416403218127400  0.7424185925404601
  0.1054667661711761  0.4058485105272567  0.2536232134647705
  0.3950249915424280  0.1551462747506775  0.2478414630770089
  0.9021464937753834  0.0939851987220806  0.7406980888688537
  0.6048650404393641  0.3430286867564547  0.7541093601740343
  0.6053370309328017  0.4054133194243192  0.2541563397092759
  0.8946718284718642  0.1558152464546509  0.2475154051627086
  0.3937407916266125  0.5959949542234639  0.7482888671845487
  0.1026916665277113  0.8509944003310252  0.7482306552915929
  0.1056146513027585  0.9050404630847808  0.2535310525344840
  0.3955307621958113  0.6547068982281061  0.2480572766245785
  0.8968058447390064  0.5947323742218629  0.7483561117045809
  0.6044526487270474  0.8454014820716367  0.7546651755635807
  0.6053616995581876  0.9049266792581889  0.2534822954036713
  0.8948253734127292  0.6546348267973556  0.2479704642432310
  0.1287430969550627  0.1419974118690845  0.6145032142810791
  0.3720851922071091  0.3911514746470601  0.8849940381675268
  0.3714618327465473  0.3574996876252783  0.3856340309524739
  0.1281850232414214  0.1083050065974689  0.1150680451113644
  0.6314738172288372  0.1423060917516921  0.6155112031816614
  0.8725881394200670  0.3905989880487795  0.8845433537685992
  0.8725552737350384  0.3575307082827308  0.3852737160220556
  0.6279964754919902  0.1082290339099856  0.1150131074117340
  0.1274248196883434  0.6431947863424128  0.6149460163246658
  0.3720191608029850  0.8920461647078568  0.8851632239607881
  0.3717589844660054  0.8581955885984200  0.3854426311852990
  0.1282592499012480  0.6083466829047879  0.1148258722874189
  0.6283464388244369  0.6418782472142581  0.6151965305630753
  0.8713580035162352  0.8923841034040194  0.8853877368893208
  0.8718836219717616  0.8582087869860615  0.3849738046495403
  0.6281348124511794  0.6080468515935848  0.1149089632332903
  0.1845167121969169  0.1548971864060960  0.7487442426276587
  0.3107971274430525  0.4083854679742771  0.7608625510802582
  0.3108431587003011  0.3430013518208952  0.2596235511033456
  0.1893292261153263  0.0932604072364285  0.2405087865589479
  0.2889945676551733  0.0482897645258902  0.5954077615734192
  0.2231367248763121  0.3030962523631118  0.9115474474497134
  0.2228656775555891  0.4487581764626256  0.4085285415309627
  0.2776568788570160  0.1983607665320903  0.0913354350324482
  0.0374969918323416  0.4974668297034128  0.6534460932845434
  0.4586248239250210  0.2445514302423319  0.8453156596772402
  0.4611949734563012  0.0044346118989012  0.3455641698209391
  0.0394566600795017  0.2549997475378589  0.1544008844064066
  0.0550381896298973  0.1211286468639088  0.4970919970729781
  0.4475800119582871  0.3744515496819218  0.9966365547399718
  0.4457322675854485  0.3764715044940417  0.4963635263721784
  0.0550745873957368  0.1265157074355798  0.0036076974188646
  0.4803943611976251  0.2342931452692341  0.6553240769260569
  0.0258891165848567  0.4783022386609517  0.8437601337869651
  0.0241639092392347  0.2678542153168308  0.3444341298943598
  0.4756163003150817  0.0176410440361394  0.1548059596993951
  0.2118959627037285  0.3006908594811577  0.5956977887492414
  0.2918640635053791  0.0394042930186416  0.9112011690156905
  0.2922688514841383  0.2093140590163074  0.4094724125914624
  0.2073538463260576  0.4591281975660308  0.0910098159413053
  0.6944391793396321  0.1569574886195539  0.7400491606365378
  0.8088376000456350  0.4076686464426871  0.7604005518777939
  0.8106814762286589  0.3436572655795516  0.2592113604840165
  0.6893288177509760  0.0931166797627654  0.2404045339175980
  0.7796638704989576  0.0526358268713665  0.5892045337817322
  0.7212258277714554  0.3035408436728986  0.9100095537033823
  0.7230301862349933  0.4482712273400153  0.4084597177262950
  0.7773545863149991  0.1983232882187878  0.0911819277027988
  0.5390545675031575  0.4958948319414560  0.6544805212745004
  0.9577726594400744  0.2436326973326359  0.8475398733114829
  0.9601024854216718  0.0036793035420573  0.3440454990757047
  0.5393301099002272  0.2548391408885493  0.1545500219356768
  0.5551289840234475  0.1231800698186873  0.5045933838534893
  0.9445359544277849  0.3755072392170860  0.9972651708127955
  0.9456655003144689  0.3755837937491222  0.4961054948177051
  0.5546635499691135  0.1262529796678891  0.0035813394444943
  0.9682813573283653  0.2375357436365277  0.6551941149317528
  0.5251697561142876  0.4822003056283464  0.8454538612120501
  0.5239341061744724  0.2669558945718720  0.3453643713893655
  0.9757320602860631  0.0178485337641376  0.1546616838762560
  0.7091789685564294  0.2915783804401357  0.5900255257164559
  0.7909462709597719  0.0402649114505067  0.9112088525529032
  0.7923807562447536  0.2088944067531600  0.4082621225706049
  0.7073486047204156  0.4589642305563970  0.0909877744570196
  0.1873513781789740  0.6591606117243813  0.7403223264336560
  0.3109708088185812  0.9031308592765157  0.7606558120639022
  0.3110151330722388  0.8429645142336355  0.2595351671727357
  0.1897276318681165  0.5935284150883859  0.2402810345717725
  0.2775536546041906  0.5537225874629996  0.5922020571438225
  0.2237355663433576  0.8004823445313605  0.9098043119095962
  0.2232244488943635  0.9482833719795494  0.4089993806208625
  0.2774846383771745  0.6986078618493323  0.0911285381085705
  0.0328792934773219  0.9880289647816554  0.6552390693152574
  0.4628399999365840  0.7449296258523219  0.8466160451888101
  0.4610355320436170  0.5041480316784259  0.3453277184960655
  0.0392480680177698  0.7547768167749993  0.1544320234253220
  0.0563320746708058  0.6238827642462894  0.5025556945689260
  0.4470035379119679  0.8725531643903608  0.9966822334128835
  0.4460525667342026  0.8755381473756927  0.4963322691194421
  0.0551784069017174  0.6260955018512604  0.0033085056437088
  0.4761800900659097  0.7329363919963612  0.6545813826008740
  0.0232413672150500  0.9828178265798115  0.8483278084035533
  0.0241560552174391  0.7670000612796457  0.3451614924582387
  0.4757444258250985  0.5174894590187549  0.1546534133067610
  0.2056292853082553  0.7925798265288577  0.5906231308723875
  0.2946855325054827  0.5417055023226283  0.9097885554366343
  0.2926718073594117  0.7088132513371406  0.4089169188988890
  0.2072001910797283  0.9590313718141488  0.0911115540262628
  0.6901590033808205  0.6572804835811965  0.7400737348529560
  0.8092701053953277  0.9077635754473476  0.7610461180972479
  0.8100370335925717  0.8417846983620336  0.2591617843065990
  0.6891562833756595  0.5932155466294020  0.2403926534072411
  0.7770290910009052  0.5511906278589365  0.5909320088100358
  0.7222319913182744  0.8006490660632508  0.9089736410794274
  0.7223356224259518  0.9483665237897938  0.4081899344343896
  0.7774038925660776  0.6982978548587369  0.0912877176971918
  0.5447079297295474  0.9948942355961137  0.6555174161699640
  0.9613038258530224  0.7464471853519896  0.8453975290048490
  0.9609163479454637  0.5047773363531078  0.3454107181540920
  0.5390793526956728  0.7546562859351482  0.1543370808018452
  0.5552047761620216  0.6239876487628209  0.5033410336904680
  0.9428470261552349  0.8720029608285387  0.9977900496395762
  0.9448304153229898  0.8765135974235321  0.4958681105097398
  0.5551473912848266  0.6259829826905161  0.0034243804702214
  0.9735541024031420  0.7320715328581002  0.6532718655938083
  0.5220203747249741  0.9843182790167830  0.8451095226855188
  0.5241185119562175  0.7670562009498312  0.3450247025931148
  0.9759876659957030  0.5178356905695054  0.1547863017607654
  0.7077386790305269  0.7908107401682045  0.5905628997385435
  0.7960037859288249  0.5419426924433353  0.9089836606943535
  0.7923877514586124  0.7088547953807733  0.4086964617857376
  0.7069808162314573  0.9589985092079445  0.0911189377322685
 
  0.00000000E+00  0.00000000E+00  0.00000000E+00
  0.00000000E+00  0.00000000E+00  0.00000000E+00
  0.00000000E+00  0.00000000E+00  0.00000000E+00
  0.00000000E+00  0.00000000E+00  0.00000000E+00
  0.00000000E+00  0.00000000E+00  0.00000000E+00
  0.00000000E+00  0.00000000E+00  0.00000000E+00
  0.00000000E+00  0.00000000E+00  0.00000000E+00
  0.00000000E+00  0.00000000E+00  0.00000000E+00
  0.00000000E+00  0.00000000E+00  0.00000000E+00
  0.00000000E+00  0.00000000E+00  0.00000000E+00
  0.00000000E+00  0.00000000E+00  0.00000000E+00
  0.00000000E+00  0.00000000E+00  0.00000000E+00
  0.00000000E+00  0.00000000E+00  0.00000000E+00
  0.00000000E+00  0.00000000E+00  0.00000000E+00
  0.00000000E+00  0.00000000E+00  0.00000000E+00
  0.00000000E+00  0.00000000E+00  0.00000000E+00
  0.00000000E+00  0.00000000E+00  0.00000000E+00
  0.00000000E+00  0.00000000E+00  0.00000000E+00
  0.00000000E+00  0.00000000E+00  0.00000000E+00
  0.00000000E+00  0.00000000E+00  0.00000000E+00
  0.00000000E+00  0.00000000E+00  0.00000000E+00
  0.00000000E+00  0.00000000E+00  0.00000000E+00
  0.00000000E+00  0.00000000E+00  0.00000000E+00
  0.00000000E+00  0.00000000E+00  0.00000000E+00
  0.00000000E+00  0.00000000E+00  0.00000000E+00
  0.00000000E+00  0.00000000E+00  0.00000000E+00
  0.00000000E+00  0.00000000E+00  0.00000000E+00
  0.00000000E+00  0.00000000E+00  0.00000000E+00
  0.00000000E+00  0.00000000E+00  0.00000000E+00
  0.00000000E+00  0.00000000E+00  0.00000000E+00
  0.00000000E+00  0.00000000E+00  0.00000000E+00
  0.00000000E+00  0.00000000E+00  0.00000000E+00
  0.00000000E+00  0.00000000E+00  0.00000000E+00
  0.00000000E+00  0.00000000E+00  0.00000000E+00
  0.00000000E+00  0.00000000E+00  0.00000000E+00
  0.00000000E+00  0.00000000E+00  0.00000000E+00
  0.00000000E+00  0.00000000E+00  0.00000000E+00
  0.00000000E+00  0.00000000E+00  0.00000000E+00
  0.00000000E+00  0.00000000E+00  0.00000000E+00
  0.00000000E+00  0.00000000E+00  0.00000000E+00
  0.00000000E+00  0.00000000E+00  0.00000000E+00
  0.00000000E+00  0.00000000E+00  0.00000000E+00
  0.00000000E+00  0.00000000E+00  0.00000000E+00
  0.00000000E+00  0.00000000E+00  0.00000000E+00
  0.00000000E+00  0.00000000E+00  0.00000000E+00
  0.00000000E+00  0.00000000E+00  0.00000000E+00
  0.00000000E+00  0.00000000E+00  0.00000000E+00
  0.00000000E+00  0.00000000E+00  0.00000000E+00
  0.00000000E+00  0.00000000E+00  0.00000000E+00
  0.00000000E+00  0.00000000E+00  0.00000000E+00
  0.00000000E+00  0.00000000E+00  0.00000000E+00
  0.00000000E+00  0.00000000E+00  0.00000000E+00
  0.00000000E+00  0.00000000E+00  0.00000000E+00
  0.00000000E+00  0.00000000E+00  0.00000000E+00
  0.00000000E+00  0.00000000E+00  0.00000000E+00
  0.00000000E+00  0.00000000E+00  0.00000000E+00
  0.00000000E+00  0.00000000E+00  0.00000000E+00
  0.00000000E+00  0.00000000E+00  0.00000000E+00
  0.00000000E+00  0.00000000E+00  0.00000000E+00
  0.00000000E+00  0.00000000E+00  0.00000000E+00
  0.00000000E+00  0.00000000E+00  0.00000000E+00
  0.00000000E+00  0.00000000E+00  0.00000000E+00
  0.00000000E+00  0.00000000E+00  0.00000000E+00
  0.00000000E+00  0.00000000E+00  0.00000000E+00
  0.00000000E+00  0.00000000E+00  0.00000000E+00
  0.00000000E+00  0.00000000E+00  0.00000000E+00
  0.00000000E+00  0.00000000E+00  0.00000000E+00
  0.00000000E+00  0.00000000E+00  0.00000000E+00
  0.00000000E+00  0.00000000E+00  0.00000000E+00
  0.00000000E+00  0.00000000E+00  0.00000000E+00
  0.00000000E+00  0.00000000E+00  0.00000000E+00
  0.00000000E+00  0.00000000E+00  0.00000000E+00
  0.00000000E+00  0.00000000E+00  0.00000000E+00
  0.00000000E+00  0.00000000E+00  0.00000000E+00
  0.00000000E+00  0.00000000E+00  0.00000000E+00
  0.00000000E+00  0.00000000E+00  0.00000000E+00
  0.00000000E+00  0.00000000E+00  0.00000000E+00
  0.00000000E+00  0.00000000E+00  0.00000000E+00
  0.00000000E+00  0.00000000E+00  0.00000000E+00
  0.00000000E+00  0.00000000E+00  0.00000000E+00
  0.00000000E+00  0.00000000E+00  0.00000000E+00
  0.00000000E+00  0.00000000E+00  0.00000000E+00
  0.00000000E+00  0.00000000E+00  0.00000000E+00
  0.00000000E+00  0.00000000E+00  0.00000000E+00
  0.00000000E+00  0.00000000E+00  0.00000000E+00
  0.00000000E+00  0.00000000E+00  0.00000000E+00
  0.00000000E+00  0.00000000E+00  0.00000000E+00
  0.00000000E+00  0.00000000E+00  0.00000000E+00
  0.00000000E+00  0.00000000E+00  0.00000000E+00
  0.00000000E+00  0.00000000E+00  0.00000000E+00
  0.00000000E+00  0.00000000E+00  0.00000000E+00
  0.00000000E+00  0.00000000E+00  0.00000000E+00
  0.00000000E+00  0.00000000E+00  0.00000000E+00
  0.00000000E+00  0.00000000E+00  0.00000000E+00
  0.00000000E+00  0.00000000E+00  0.00000000E+00
  0.00000000E+00  0.00000000E+00  0.00000000E+00
  0.00000000E+00  0.00000000E+00  0.00000000E+00
  0.00000000E+00  0.00000000E+00  0.00000000E+00
  0.00000000E+00  0.00000000E+00  0.00000000E+00
  0.00000000E+00  0.00000000E+00  0.00000000E+00
  0.00000000E+00  0.00000000E+00  0.00000000E+00
  0.00000000E+00  0.00000000E+00  0.00000000E+00
  0.00000000E+00  0.00000000E+00  0.00000000E+00
  0.00000000E+00  0.00000000E+00  0.00000000E+00
  0.00000000E+00  0.00000000E+00  0.00000000E+00
  0.00000000E+00  0.00000000E+00  0.00000000E+00
  0.00000000E+00  0.00000000E+00  0.00000000E+00
  0.00000000E+00  0.00000000E+00  0.00000000E+00
  0.00000000E+00  0.00000000E+00  0.00000000E+00
  0.00000000E+00  0.00000000E+00  0.00000000E+00
  0.00000000E+00  0.00000000E+00  0.00000000E+00
  0.00000000E+00  0.00000000E+00  0.00000000E+00
  0.00000000E+00  0.00000000E+00  0.00000000E+00
  0.00000000E+00  0.00000000E+00  0.00000000E+00
  0.00000000E+00  0.00000000E+00  0.00000000E+00
  0.00000000E+00  0.00000000E+00  0.00000000E+00
  0.00000000E+00  0.00000000E+00  0.00000000E+00
  0.00000000E+00  0.00000000E+00  0.00000000E+00
  0.00000000E+00  0.00000000E+00  0.00000000E+00
  0.00000000E+00  0.00000000E+00  0.00000000E+00
  0.00000000E+00  0.00000000E+00  0.00000000E+00
  0.00000000E+00  0.00000000E+00  0.00000000E+00
  0.00000000E+00  0.00000000E+00  0.00000000E+00
  0.00000000E+00  0.00000000E+00  0.00000000E+00
  0.00000000E+00  0.00000000E+00  0.00000000E+00
  0.00000000E+00  0.00000000E+00  0.00000000E+00
  0.00000000E+00  0.00000000E+00  0.00000000E+00
  0.00000000E+00  0.00000000E+00  0.00000000E+00
