supercell of natacl6_p21c.cif           
   1.00000000000000     
    12.8086700406632197    0.0000004227264436   -0.0315492974735766
     0.0000004651105324   13.6960863482870359   -0.0000019106395650
    -0.3327533513840475   -0.0000026420200669   18.8435734257652570
   Ta   Na   Cl
    17    15    96
Direct
  0.3969622763297096  0.0876605563287782  0.7287463132747334
  0.1397113846178186  0.1458920813027333  0.6219982935743005
  0.3662888220128835  0.3852268153860194  0.8764790723313709
  0.3726131498659626  0.3572626321778927  0.3855191182617972
  0.1272121409688012  0.1078611941541254  0.1156206449653112
  0.6382298174407239  0.1448259844489357  0.6148727802478504
  0.8669520074360051  0.3911767339664465  0.8844410367956783
  0.8723640300909281  0.3564426275319263  0.3869664853428176
  0.6278608000073334  0.1066475256799109  0.1148751397895040
  0.1294567813983534  0.6436211002229228  0.6145720601987321
  0.3644305632316787  0.9020021338307487  0.8863534752087432
  0.3720891109093500  0.8573893380239355  0.3851000210514073
  0.1299863904200009  0.6074848640311714  0.1134570552633889
  0.6249965442557937  0.6426602358426834  0.6164148197109327
  0.8666186883687743  0.8944746164632278  0.8857034931433105
  0.8724791706553319  0.8587722291775037  0.3864103005442132
  0.6262576153604229  0.6064659709865126  0.1124279633699814
  0.1115299705632182  0.3417525874038603  0.7639349387976893
  0.1038163389588647  0.4053942550663265  0.2534667052635484
  0.3945993439991540  0.1549710911740121  0.2469001774057205
  0.8926151966860516  0.0919247468758400  0.7275936466083266
  0.6025570104201634  0.3408416670390366  0.7522534958882829
  0.6057642818013704  0.4047228144494781  0.2523320087013374
  0.8942443040584322  0.1551897550565329  0.2479743781331649
  0.3990039518266002  0.5970187553497937  0.7653013114711982
  0.1059597689466329  0.8408999612922301  0.7662797755924160
  0.1045394588856183  0.9041069435156146  0.2522602128267053
  0.3948403387020747  0.6545334950250705  0.2452004944621820
  0.8938772346416073  0.5940325481164166  0.7450642455024266
  0.6053539109600692  0.8467537735631723  0.7568534236749187
  0.6057913692569983  0.9041350571790545  0.2520259628804169
  0.8949552365705813  0.6538781879339837  0.2466780663014418
  0.2143923692982170  0.1574897034138516  0.7491728089228289
  0.3112390917784182  0.4102007135608687  0.7511147178920154
  0.3100196121673378  0.3424002606252401  0.2600186299837262
  0.1890162337953853  0.0928671356324458  0.2414958490439147
  0.3070357877221781  0.0551915643701193  0.6058869785633760
  0.2054959861221448  0.3052204503291733  0.9033300787592395
  0.2235557164933226  0.4478293340616801  0.4093416919252704
  0.2758387836227598  0.1978787602365273  0.0916087926864790
  0.0428732812433381  0.4973728606808834  0.6554084085072986
  0.4455171486864060  0.2247563902811152  0.8267150709221056
  0.4611619774248865  0.0036267308536395  0.3456089371143207
  0.0384559529335888  0.2545572910122260  0.1560837529624663
  0.0735337059238645  0.1145350712178157  0.5073226290306465
  0.4440447687963172  0.3492108757218517  0.9861203377249268
  0.4476096520475537  0.3757651492189567  0.4961644531785510
  0.0514047355463205  0.1265149669259955  0.0054055778222448
  0.4729500239874369  0.2288542968411633  0.6563820881167857
  0.0179416053367305  0.4843468778744580  0.8455921995500617
  0.0243885348574580  0.2662901300400193  0.3464527989468849
  0.4754933228033664  0.0171405297293674  0.1556306321796015
  0.2224928883633694  0.2939055083903099  0.5968639510763225
  0.2815064900354685  0.0468844472909282  0.9173957983366776
  0.2938242024305779  0.2086878631748803  0.4098063832948142
  0.2091804653443745  0.4590246211119151  0.0891998819893587
  0.6930465287116760  0.1570668868362191  0.7416172016870775
  0.8066447432342301  0.4082139413330665  0.7598541189115693
  0.8106889961715993  0.3422663915671365  0.2607197878442520
  0.6888697908786909  0.0933525096753556  0.2411852039727975
  0.7925196308884210  0.0544874988659956  0.5896222842584393
  0.7167986788383161  0.3029643289412718  0.9100955162867237
  0.7234815135847796  0.4479135823553619  0.4098012472968193
  0.7774574926462492  0.1968291962365001  0.0914869850622537
  0.5382861192597730  0.4962161127111457  0.6531760618180158
  0.9512211214845365  0.2434970085117030  0.8453955571569338
  0.9612432322336630  0.0048066569362604  0.3464820250687453
  0.5388799360796384  0.2537497073169703  0.1531033654342195
  0.5569378260634608  0.1149759258331500  0.5056068836880954
  0.9426712401795072  0.3731603692471168  0.9959338054929958
  0.9460762020132947  0.3744422123204174  0.4977173901854641
  0.5569451515119539  0.1210440649983084  0.0031108146400598
  0.9873986197596736  0.2409420571649790  0.6579438789807597
  0.5287537255695511  0.4734386696064803  0.8425321901004068
  0.5245835560455134  0.2668331346427095  0.3447113412051124
  0.9747647836692437  0.0172217904247987  0.1566406562163465
  0.7110788173027132  0.2997798762401231  0.5945531687636034
  0.7846211698423176  0.0415182135878354  0.9106461385670457
  0.7925058463087638  0.2081198932386883  0.4103267059467584
  0.7069715042874449  0.4576189241327029  0.0899288312699014
  0.1952150636453354  0.6599048335131954  0.7376197627225167
  0.3031198232324144  0.9243723987517711  0.7559746417316475
  0.3104068386769825  0.8426841158629514  0.2594868524720297
  0.1904938317416836  0.5917402487519894  0.2399715050793603
  0.2767771485311741  0.5543753068827826  0.5862018332797732
  0.2181996947783631  0.7981537285530038  0.9030526252182511
  0.2232625761643234  0.9475149912612579  0.4088985520550921
  0.2781027315294864  0.6995244195403743  0.0914860362120180
  0.0579083639683091  0.9948992547338449  0.6628163628053372
  0.4611749152626317  0.7599477419474567  0.8409694217120602
  0.4610696611703844  0.5040243657894123  0.3448258812045708
  0.0390521861478561  0.7533937460162292  0.1545086270609914
  0.0500008339530709  0.6254612234930761  0.5041227169293521
  0.4432957146104073  0.8798538115838141  0.9985705767143145
  0.4452145830773162  0.8744122935997893  0.4965102505906245
  0.0574782618500080  0.6266273091220071  0.0023389884410321
  0.4722392572519354  0.7304873063240578  0.6558613783631699
  0.0171966867300668  0.9859360981912886  0.8481736325944027
  0.0244118408836869  0.7676314174808709  0.3457884574560595
  0.4750754867617175  0.5150797164870866  0.1530148146660153
  0.2064866878576623  0.7928596098310337  0.5873861186324234
  0.2969295528994493  0.5415501355265988  0.9036797362305649
  0.2927754539941176  0.7079323094128895  0.4083152586691625
  0.2052240949235653  0.9584563373662291  0.0922826532489580
  0.6880918239804572  0.6577177745553300  0.7409368133533007
  0.8093255759599245  0.9071623326048837  0.7600399523939387
  0.8111324209642916  0.8424858057770237  0.2603767864983340
  0.6887552232198502  0.5921158928436867  0.2388153547775360
  0.7773949412835037  0.5560409270047018  0.5917788377087021
  0.7155774516382678  0.8050687118764515  0.9088550525594243
  0.7227516738269770  0.9482823619661076  0.4090398791624921
  0.7758806678806707  0.6969671038556839  0.0895119609700217
  0.5401479469853285  0.9938615983590182  0.6615520526734997
  0.9531590536559094  0.7449493399471834  0.8485636381814672
  0.9609902502728858  0.5034921270084567  0.3461320885722543
  0.5383139299149491  0.7528880140928322  0.1531631820546409
  0.5552021181168314  0.6252617219836125  0.5031336993372122
  0.9391436640990207  0.8746315767691470  0.9978395472382928
  0.9452430283622490  0.8771471054944868  0.4974564086798523
  0.5527262474187538  0.6240020795188812  0.0016760321363734
  0.9784928836717057  0.7351578664949585  0.6569588054086495
  0.5083465623965537  0.0041167948578433  0.8323775044577744
  0.5242202996073502  0.7666654110356532  0.3443780093403248
  0.9770894499027492  0.5167160630788601  0.1539823646274385
  0.7024273218144614  0.7935792427497148  0.5921400732000706
  0.7876871500815383  0.5403515790765141  0.9104878592300736
  0.7933428539863243  0.7092979006927109  0.4100330002957691
  0.7077757734479349  0.9568909226860498  0.0938351597986724
 
  0.00000000E+00  0.00000000E+00  0.00000000E+00
  0.00000000E+00  0.00000000E+00  0.00000000E+00
  0.00000000E+00  0.00000000E+00  0.00000000E+00
  0.00000000E+00  0.00000000E+00  0.00000000E+00
  0.00000000E+00  0.00000000E+00  0.00000000E+00
  0.00000000E+00  0.00000000E+00  0.00000000E+00
  0.00000000E+00  0.00000000E+00  0.00000000E+00
  0.00000000E+00  0.00000000E+00  0.00000000E+00
  0.00000000E+00  0.00000000E+00  0.00000000E+00
  0.00000000E+00  0.00000000E+00  0.00000000E+00
  0.00000000E+00  0.00000000E+00  0.00000000E+00
  0.00000000E+00  0.00000000E+00  0.00000000E+00
  0.00000000E+00  0.00000000E+00  0.00000000E+00
  0.00000000E+00  0.00000000E+00  0.00000000E+00
  0.00000000E+00  0.00000000E+00  0.00000000E+00
  0.00000000E+00  0.00000000E+00  0.00000000E+00
  0.00000000E+00  0.00000000E+00  0.00000000E+00
  0.00000000E+00  0.00000000E+00  0.00000000E+00
  0.00000000E+00  0.00000000E+00  0.00000000E+00
  0.00000000E+00  0.00000000E+00  0.00000000E+00
  0.00000000E+00  0.00000000E+00  0.00000000E+00
  0.00000000E+00  0.00000000E+00  0.00000000E+00
  0.00000000E+00  0.00000000E+00  0.00000000E+00
  0.00000000E+00  0.00000000E+00  0.00000000E+00
  0.00000000E+00  0.00000000E+00  0.00000000E+00
  0.00000000E+00  0.00000000E+00  0.00000000E+00
  0.00000000E+00  0.00000000E+00  0.00000000E+00
  0.00000000E+00  0.00000000E+00  0.00000000E+00
  0.00000000E+00  0.00000000E+00  0.00000000E+00
  0.00000000E+00  0.00000000E+00  0.00000000E+00
  0.00000000E+00  0.00000000E+00  0.00000000E+00
  0.00000000E+00  0.00000000E+00  0.00000000E+00
  0.00000000E+00  0.00000000E+00  0.00000000E+00
  0.00000000E+00  0.00000000E+00  0.00000000E+00
  0.00000000E+00  0.00000000E+00  0.00000000E+00
  0.00000000E+00  0.00000000E+00  0.00000000E+00
  0.00000000E+00  0.00000000E+00  0.00000000E+00
  0.00000000E+00  0.00000000E+00  0.00000000E+00
  0.00000000E+00  0.00000000E+00  0.00000000E+00
  0.00000000E+00  0.00000000E+00  0.00000000E+00
  0.00000000E+00  0.00000000E+00  0.00000000E+00
  0.00000000E+00  0.00000000E+00  0.00000000E+00
  0.00000000E+00  0.00000000E+00  0.00000000E+00
  0.00000000E+00  0.00000000E+00  0.00000000E+00
  0.00000000E+00  0.00000000E+00  0.00000000E+00
  0.00000000E+00  0.00000000E+00  0.00000000E+00
  0.00000000E+00  0.00000000E+00  0.00000000E+00
  0.00000000E+00  0.00000000E+00  0.00000000E+00
  0.00000000E+00  0.00000000E+00  0.00000000E+00
  0.00000000E+00  0.00000000E+00  0.00000000E+00
  0.00000000E+00  0.00000000E+00  0.00000000E+00
  0.00000000E+00  0.00000000E+00  0.00000000E+00
  0.00000000E+00  0.00000000E+00  0.00000000E+00
  0.00000000E+00  0.00000000E+00  0.00000000E+00
  0.00000000E+00  0.00000000E+00  0.00000000E+00
  0.00000000E+00  0.00000000E+00  0.00000000E+00
  0.00000000E+00  0.00000000E+00  0.00000000E+00
  0.00000000E+00  0.00000000E+00  0.00000000E+00
  0.00000000E+00  0.00000000E+00  0.00000000E+00
  0.00000000E+00  0.00000000E+00  0.00000000E+00
  0.00000000E+00  0.00000000E+00  0.00000000E+00
  0.00000000E+00  0.00000000E+00  0.00000000E+00
  0.00000000E+00  0.00000000E+00  0.00000000E+00
  0.00000000E+00  0.00000000E+00  0.00000000E+00
  0.00000000E+00  0.00000000E+00  0.00000000E+00
  0.00000000E+00  0.00000000E+00  0.00000000E+00
  0.00000000E+00  0.00000000E+00  0.00000000E+00
  0.00000000E+00  0.00000000E+00  0.00000000E+00
  0.00000000E+00  0.00000000E+00  0.00000000E+00
  0.00000000E+00  0.00000000E+00  0.00000000E+00
  0.00000000E+00  0.00000000E+00  0.00000000E+00
  0.00000000E+00  0.00000000E+00  0.00000000E+00
  0.00000000E+00  0.00000000E+00  0.00000000E+00
  0.00000000E+00  0.00000000E+00  0.00000000E+00
  0.00000000E+00  0.00000000E+00  0.00000000E+00
  0.00000000E+00  0.00000000E+00  0.00000000E+00
  0.00000000E+00  0.00000000E+00  0.00000000E+00
  0.00000000E+00  0.00000000E+00  0.00000000E+00
  0.00000000E+00  0.00000000E+00  0.00000000E+00
  0.00000000E+00  0.00000000E+00  0.00000000E+00
  0.00000000E+00  0.00000000E+00  0.00000000E+00
  0.00000000E+00  0.00000000E+00  0.00000000E+00
  0.00000000E+00  0.00000000E+00  0.00000000E+00
  0.00000000E+00  0.00000000E+00  0.00000000E+00
  0.00000000E+00  0.00000000E+00  0.00000000E+00
  0.00000000E+00  0.00000000E+00  0.00000000E+00
  0.00000000E+00  0.00000000E+00  0.00000000E+00
  0.00000000E+00  0.00000000E+00  0.00000000E+00
  0.00000000E+00  0.00000000E+00  0.00000000E+00
  0.00000000E+00  0.00000000E+00  0.00000000E+00
  0.00000000E+00  0.00000000E+00  0.00000000E+00
  0.00000000E+00  0.00000000E+00  0.00000000E+00
  0.00000000E+00  0.00000000E+00  0.00000000E+00
  0.00000000E+00  0.00000000E+00  0.00000000E+00
  0.00000000E+00  0.00000000E+00  0.00000000E+00
  0.00000000E+00  0.00000000E+00  0.00000000E+00
  0.00000000E+00  0.00000000E+00  0.00000000E+00
  0.00000000E+00  0.00000000E+00  0.00000000E+00
  0.00000000E+00  0.00000000E+00  0.00000000E+00
  0.00000000E+00  0.00000000E+00  0.00000000E+00
  0.00000000E+00  0.00000000E+00  0.00000000E+00
  0.00000000E+00  0.00000000E+00  0.00000000E+00
  0.00000000E+00  0.00000000E+00  0.00000000E+00
  0.00000000E+00  0.00000000E+00  0.00000000E+00
  0.00000000E+00  0.00000000E+00  0.00000000E+00
  0.00000000E+00  0.00000000E+00  0.00000000E+00
  0.00000000E+00  0.00000000E+00  0.00000000E+00
  0.00000000E+00  0.00000000E+00  0.00000000E+00
  0.00000000E+00  0.00000000E+00  0.00000000E+00
  0.00000000E+00  0.00000000E+00  0.00000000E+00
  0.00000000E+00  0.00000000E+00  0.00000000E+00
  0.00000000E+00  0.00000000E+00  0.00000000E+00
  0.00000000E+00  0.00000000E+00  0.00000000E+00
  0.00000000E+00  0.00000000E+00  0.00000000E+00
  0.00000000E+00  0.00000000E+00  0.00000000E+00
  0.00000000E+00  0.00000000E+00  0.00000000E+00
  0.00000000E+00  0.00000000E+00  0.00000000E+00
  0.00000000E+00  0.00000000E+00  0.00000000E+00
  0.00000000E+00  0.00000000E+00  0.00000000E+00
  0.00000000E+00  0.00000000E+00  0.00000000E+00
  0.00000000E+00  0.00000000E+00  0.00000000E+00
  0.00000000E+00  0.00000000E+00  0.00000000E+00
  0.00000000E+00  0.00000000E+00  0.00000000E+00
  0.00000000E+00  0.00000000E+00  0.00000000E+00
  0.00000000E+00  0.00000000E+00  0.00000000E+00
  0.00000000E+00  0.00000000E+00  0.00000000E+00
  0.00000000E+00  0.00000000E+00  0.00000000E+00
  0.00000000E+00  0.00000000E+00  0.00000000E+00
