supercell of natacl6_p21c.cif           
   1.00000000000000     
    12.8086700406632197    0.0000004227264436   -0.0315492974735766
     0.0000004651105324   13.6960863482870359   -0.0000019106395650
    -0.3327533513840475   -0.0000026420200669   18.8435734257652570
   Ta   Na   Cl
    17    15    96
Direct
  0.3913639081817166  0.0799857536066710  0.7242175330666782
  0.1383154565707940  0.1434158039343245  0.6216870981268485
  0.3686616481717166  0.3863345001672656  0.8809632209007887
  0.3720678899995704  0.3573912284723164  0.3858533145379184
  0.1273082396976619  0.1078095450020697  0.1158984101799021
  0.6347548519895412  0.1430253020945429  0.6159273678756634
  0.8720650716517113  0.3905883797071255  0.8847676834684322
  0.8720566997344079  0.3565368130926103  0.3867207279489833
  0.6280726526130849  0.1078245158801963  0.1149071221304965
  0.1292066339606563  0.6437591520513308  0.6141422051307117
  0.3633099097986232  0.8991191500586808  0.8850344501739613
  0.3721517587185161  0.8575602621876826  0.3849208223859080
  0.1288809398215491  0.6083824805049076  0.1145033866714229
  0.6269673816688197  0.6434046939849267  0.6149014010455431
  0.8673584250675574  0.8941872410933556  0.8857575371956230
  0.8723453191029122  0.8591378520198063  0.3860910387364171
  0.6269356195856517  0.6076094435672914  0.1133207639196385
  0.1012319783904658  0.3457816692182760  0.7508647672045186
  0.1041730306303918  0.4049195902455551  0.2541934265469479
  0.3949071214087922  0.1551383506440231  0.2473885601523733
  0.8915870334134652  0.0917559612922787  0.7307049552851197
  0.6116870556770806  0.3445000909113034  0.7430811486503686
  0.6059068046080114  0.4045717172449628  0.2536839588491020
  0.8949040916658646  0.1555391212762203  0.2481177661539036
  0.4001913285724967  0.6000461866018725  0.7533786092067629
  0.1021529667921897  0.8387384122983548  0.7658455313122516
  0.1048905190221063  0.9048695142877250  0.2532280270621925
  0.3956466026038541  0.6542422120571842  0.2468141113752367
  0.8946660900882080  0.5962659734658260  0.7462483793575103
  0.6063433371467539  0.8458746995684905  0.7589118686988243
  0.6058082539183403  0.9049157608791418  0.2529181259992725
  0.8949540744947200  0.6540122232081274  0.2484018613444547
  0.2148484337571261  0.1564026699755914  0.7504350059465565
  0.3062415874604838  0.4119355119403281  0.7583207368884644
  0.3102707601567900  0.3428637363335412  0.2602045876960446
  0.1889521478791849  0.0933824059589909  0.2414250546412973
  0.3040544715902982  0.0516927082071277  0.6034045307290512
  0.2169454768997383  0.3024548037405310  0.9075435482650249
  0.2232658010630146  0.4483609316126902  0.4094376635591814
  0.2762505103480279  0.1980275174311217  0.0915285611567214
  0.0390724936543165  0.4978396526444726  0.6538247800334887
  0.4458356864121384  0.2346818123521928  0.8360567262211944
  0.4613467999181253  0.0041235543608451  0.3457700550065539
  0.0388712338643558  0.2548801012629696  0.1558038397935704
  0.0729188078201020  0.1148673488257188  0.5069080224004381
  0.4470515833514810  0.3603943135009402  0.9905570780448940
  0.4462109625834358  0.3755345326122921  0.4969308159970467
  0.0516844017734570  0.1264039392695935  0.0053996677976471
  0.4690648490417644  0.2267789299438334  0.6620265608962512
  0.0248870814903484  0.4822635109914941  0.8463360569185383
  0.0240735380929564  0.2660531949785607  0.3467640792402165
  0.4757659376553178  0.0177674876742415  0.1549322643806050
  0.2221232235615602  0.2924429480567952  0.6003340042637433
  0.2761922607957388  0.0434326027090890  0.9157253846931752
  0.2927372990090831  0.2089045838921137  0.4098447768714166
  0.2083952285935808  0.4592302271584288  0.0905514781440715
  0.6888107074200320  0.1548763458735252  0.7431384275682760
  0.8138571925337956  0.4076399161898578  0.7594283293377515
  0.8109647530374602  0.3425517021187190  0.2604377038482824
  0.6890814783734456  0.0937868570644795  0.2405626603604318
  0.7896089043751076  0.0544625863034724  0.5920907045539607
  0.7216209797182174  0.3020179345717295  0.9084470288677267
  0.7232464128589484  0.4484541844490266  0.4092420578396272
  0.7774977081566945  0.1980401611978237  0.0912698398088025
  0.5349686974695942  0.4981335308859585  0.6538806839851645
  0.9586008411887263  0.2437385562315484  0.8455267623971210
  0.9612217707061887  0.0051517382204835  0.3465309756754706
  0.5389517005242084  0.2547205390248379  0.1536542233284592
  0.5523062664952008  0.1215766003389120  0.5066189659435025
  0.9449111407333319  0.3726966023383582  0.9967405935872264
  0.9453390305266183  0.3746702553880112  0.4976966726465122
  0.5562300680257408  0.1246020906614689  0.0029463188392995
  0.9837318458282454  0.2366174403913988  0.6555737474045529
  0.5258345479092839  0.4708174379401626  0.8423769751943269
  0.5241051059898751  0.2666470727960188  0.3455698587824187
  0.9749606910466895  0.0172589068095519  0.1562474880538858
  0.7071045164779193  0.2996030890708710  0.5961038833280128
  0.7850239801910490  0.0413137745247667  0.9102870804335694
  0.7917538197535805  0.2084637686081621  0.4102662962558696
  0.7071705087285522  0.4587275754331444  0.0898900444512662
  0.1928115090263063  0.6575750266707701  0.7386485123408022
  0.3005953494469793  0.9182236772838763  0.7540338513098703
  0.3107442163487022  0.8429665238524606  0.2594185240349631
  0.1899769318390128  0.5929276203529312  0.2401297428704510
  0.2768890319486346  0.5525676182193777  0.5889323547119290
  0.2170909032930979  0.7953157520030203  0.9018900881181153
  0.2235276099447319  0.9476583265971428  0.4091282244502423
  0.2774783286180025  0.6992894122902413  0.0908126481746194
  0.0567408239916247  0.9940322607997558  0.6632129710232562
  0.4594168148692290  0.7555262794169977  0.8388773992456962
  0.4613043819403941  0.5039391906534760  0.3455850138937535
  0.0389612747780106  0.7543089945431589  0.1544112916594571
  0.0530148338875165  0.6251417187121007  0.5031677828387515
  0.4483064217722230  0.8833219952948781  0.9943948766806230
  0.4461168298767859  0.8746072474224249  0.4962126212400335
  0.0559586126285438  0.6262588833856810  0.0030610025276587
  0.4751117625514141  0.7340978302839858  0.6528907682727407
  0.0176274008430397  0.9854590893547623  0.8479585821824429
  0.0245225809237937  0.7679229143024386  0.3458613604100336
  0.4753167510950576  0.5161385707042569  0.1533088771612654
  0.2082563567745837  0.7919247451407543  0.5881705838631746
  0.2988829076862132  0.5374586277670517  0.9105293178949339
  0.2929466975411970  0.7082089337811652  0.4084812535432434
  0.2059715566667180  0.9588023008039386  0.0921962576608948
  0.6878065629580732  0.6569204786439471  0.7403731369661557
  0.8102604832052975  0.9061973272789103  0.7597262628834969
  0.8111802222838236  0.8431105919924562  0.2601795491870007
  0.6884964291396543  0.5928114948861634  0.2390572246170919
  0.7763018580764083  0.5522832994592761  0.5921561090076324
  0.7158030647842040  0.8048424028728149  0.9083936407441868
  0.7226272882570299  0.9486091944443658  0.4092078025602248
  0.7762402737892202  0.6979947792705516  0.0900082229926369
  0.5379241976710247  0.9902733986069236  0.6589186482818619
  0.9533346426155518  0.7438462061734086  0.8487331081523521
  0.9614343193049208  0.5034845127147918  0.3462853110029727
  0.5381363302922821  0.7539279599145345  0.1530502707514643
  0.5564225138079166  0.6239567917082383  0.5023487766725125
  0.9402531678901127  0.8741343618704960  0.9974956268416264
  0.9452362006133939  0.8772243011918022  0.4973489598002061
  0.5537943058782986  0.6251953370329488  0.0018211794221443
  0.9784461935354258  0.7353084887081494  0.6557757671044158
  0.5022582601838863  0.0063740445562246  0.8284337175446481
  0.5245339299554672  0.7667177612462837  0.3446028171499904
  0.9764708802934123  0.5175092158523142  0.1544855830107537
  0.7071966064818653  0.7920105221969820  0.5907215700385535
  0.7921766115886300  0.5398962163139203  0.9091032146874340
  0.7934043816505039  0.7094055769443983  0.4095792716262068
  0.7075606229472058  0.9584666422616550  0.0922038117889699
 
  0.00000000E+00  0.00000000E+00  0.00000000E+00
  0.00000000E+00  0.00000000E+00  0.00000000E+00
  0.00000000E+00  0.00000000E+00  0.00000000E+00
  0.00000000E+00  0.00000000E+00  0.00000000E+00
  0.00000000E+00  0.00000000E+00  0.00000000E+00
  0.00000000E+00  0.00000000E+00  0.00000000E+00
  0.00000000E+00  0.00000000E+00  0.00000000E+00
  0.00000000E+00  0.00000000E+00  0.00000000E+00
  0.00000000E+00  0.00000000E+00  0.00000000E+00
  0.00000000E+00  0.00000000E+00  0.00000000E+00
  0.00000000E+00  0.00000000E+00  0.00000000E+00
  0.00000000E+00  0.00000000E+00  0.00000000E+00
  0.00000000E+00  0.00000000E+00  0.00000000E+00
  0.00000000E+00  0.00000000E+00  0.00000000E+00
  0.00000000E+00  0.00000000E+00  0.00000000E+00
  0.00000000E+00  0.00000000E+00  0.00000000E+00
  0.00000000E+00  0.00000000E+00  0.00000000E+00
  0.00000000E+00  0.00000000E+00  0.00000000E+00
  0.00000000E+00  0.00000000E+00  0.00000000E+00
  0.00000000E+00  0.00000000E+00  0.00000000E+00
  0.00000000E+00  0.00000000E+00  0.00000000E+00
  0.00000000E+00  0.00000000E+00  0.00000000E+00
  0.00000000E+00  0.00000000E+00  0.00000000E+00
  0.00000000E+00  0.00000000E+00  0.00000000E+00
  0.00000000E+00  0.00000000E+00  0.00000000E+00
  0.00000000E+00  0.00000000E+00  0.00000000E+00
  0.00000000E+00  0.00000000E+00  0.00000000E+00
  0.00000000E+00  0.00000000E+00  0.00000000E+00
  0.00000000E+00  0.00000000E+00  0.00000000E+00
  0.00000000E+00  0.00000000E+00  0.00000000E+00
  0.00000000E+00  0.00000000E+00  0.00000000E+00
  0.00000000E+00  0.00000000E+00  0.00000000E+00
  0.00000000E+00  0.00000000E+00  0.00000000E+00
  0.00000000E+00  0.00000000E+00  0.00000000E+00
  0.00000000E+00  0.00000000E+00  0.00000000E+00
  0.00000000E+00  0.00000000E+00  0.00000000E+00
  0.00000000E+00  0.00000000E+00  0.00000000E+00
  0.00000000E+00  0.00000000E+00  0.00000000E+00
  0.00000000E+00  0.00000000E+00  0.00000000E+00
  0.00000000E+00  0.00000000E+00  0.00000000E+00
  0.00000000E+00  0.00000000E+00  0.00000000E+00
  0.00000000E+00  0.00000000E+00  0.00000000E+00
  0.00000000E+00  0.00000000E+00  0.00000000E+00
  0.00000000E+00  0.00000000E+00  0.00000000E+00
  0.00000000E+00  0.00000000E+00  0.00000000E+00
  0.00000000E+00  0.00000000E+00  0.00000000E+00
  0.00000000E+00  0.00000000E+00  0.00000000E+00
  0.00000000E+00  0.00000000E+00  0.00000000E+00
  0.00000000E+00  0.00000000E+00  0.00000000E+00
  0.00000000E+00  0.00000000E+00  0.00000000E+00
  0.00000000E+00  0.00000000E+00  0.00000000E+00
  0.00000000E+00  0.00000000E+00  0.00000000E+00
  0.00000000E+00  0.00000000E+00  0.00000000E+00
  0.00000000E+00  0.00000000E+00  0.00000000E+00
  0.00000000E+00  0.00000000E+00  0.00000000E+00
  0.00000000E+00  0.00000000E+00  0.00000000E+00
  0.00000000E+00  0.00000000E+00  0.00000000E+00
  0.00000000E+00  0.00000000E+00  0.00000000E+00
  0.00000000E+00  0.00000000E+00  0.00000000E+00
  0.00000000E+00  0.00000000E+00  0.00000000E+00
  0.00000000E+00  0.00000000E+00  0.00000000E+00
  0.00000000E+00  0.00000000E+00  0.00000000E+00
  0.00000000E+00  0.00000000E+00  0.00000000E+00
  0.00000000E+00  0.00000000E+00  0.00000000E+00
  0.00000000E+00  0.00000000E+00  0.00000000E+00
  0.00000000E+00  0.00000000E+00  0.00000000E+00
  0.00000000E+00  0.00000000E+00  0.00000000E+00
  0.00000000E+00  0.00000000E+00  0.00000000E+00
  0.00000000E+00  0.00000000E+00  0.00000000E+00
  0.00000000E+00  0.00000000E+00  0.00000000E+00
  0.00000000E+00  0.00000000E+00  0.00000000E+00
  0.00000000E+00  0.00000000E+00  0.00000000E+00
  0.00000000E+00  0.00000000E+00  0.00000000E+00
  0.00000000E+00  0.00000000E+00  0.00000000E+00
  0.00000000E+00  0.00000000E+00  0.00000000E+00
  0.00000000E+00  0.00000000E+00  0.00000000E+00
  0.00000000E+00  0.00000000E+00  0.00000000E+00
  0.00000000E+00  0.00000000E+00  0.00000000E+00
  0.00000000E+00  0.00000000E+00  0.00000000E+00
  0.00000000E+00  0.00000000E+00  0.00000000E+00
  0.00000000E+00  0.00000000E+00  0.00000000E+00
  0.00000000E+00  0.00000000E+00  0.00000000E+00
  0.00000000E+00  0.00000000E+00  0.00000000E+00
  0.00000000E+00  0.00000000E+00  0.00000000E+00
  0.00000000E+00  0.00000000E+00  0.00000000E+00
  0.00000000E+00  0.00000000E+00  0.00000000E+00
  0.00000000E+00  0.00000000E+00  0.00000000E+00
  0.00000000E+00  0.00000000E+00  0.00000000E+00
  0.00000000E+00  0.00000000E+00  0.00000000E+00
  0.00000000E+00  0.00000000E+00  0.00000000E+00
  0.00000000E+00  0.00000000E+00  0.00000000E+00
  0.00000000E+00  0.00000000E+00  0.00000000E+00
  0.00000000E+00  0.00000000E+00  0.00000000E+00
  0.00000000E+00  0.00000000E+00  0.00000000E+00
  0.00000000E+00  0.00000000E+00  0.00000000E+00
  0.00000000E+00  0.00000000E+00  0.00000000E+00
  0.00000000E+00  0.00000000E+00  0.00000000E+00
  0.00000000E+00  0.00000000E+00  0.00000000E+00
  0.00000000E+00  0.00000000E+00  0.00000000E+00
  0.00000000E+00  0.00000000E+00  0.00000000E+00
  0.00000000E+00  0.00000000E+00  0.00000000E+00
  0.00000000E+00  0.00000000E+00  0.00000000E+00
  0.00000000E+00  0.00000000E+00  0.00000000E+00
  0.00000000E+00  0.00000000E+00  0.00000000E+00
  0.00000000E+00  0.00000000E+00  0.00000000E+00
  0.00000000E+00  0.00000000E+00  0.00000000E+00
  0.00000000E+00  0.00000000E+00  0.00000000E+00
  0.00000000E+00  0.00000000E+00  0.00000000E+00
  0.00000000E+00  0.00000000E+00  0.00000000E+00
  0.00000000E+00  0.00000000E+00  0.00000000E+00
  0.00000000E+00  0.00000000E+00  0.00000000E+00
  0.00000000E+00  0.00000000E+00  0.00000000E+00
  0.00000000E+00  0.00000000E+00  0.00000000E+00
  0.00000000E+00  0.00000000E+00  0.00000000E+00
  0.00000000E+00  0.00000000E+00  0.00000000E+00
  0.00000000E+00  0.00000000E+00  0.00000000E+00
  0.00000000E+00  0.00000000E+00  0.00000000E+00
  0.00000000E+00  0.00000000E+00  0.00000000E+00
  0.00000000E+00  0.00000000E+00  0.00000000E+00
  0.00000000E+00  0.00000000E+00  0.00000000E+00
  0.00000000E+00  0.00000000E+00  0.00000000E+00
  0.00000000E+00  0.00000000E+00  0.00000000E+00
  0.00000000E+00  0.00000000E+00  0.00000000E+00
  0.00000000E+00  0.00000000E+00  0.00000000E+00
  0.00000000E+00  0.00000000E+00  0.00000000E+00
  0.00000000E+00  0.00000000E+00  0.00000000E+00
  0.00000000E+00  0.00000000E+00  0.00000000E+00
  0.00000000E+00  0.00000000E+00  0.00000000E+00
