supercell of natacl6_p21c.cif           
   1.00000000000000     
    12.8086700406632197    0.0000004227264436   -0.0315492974735766
     0.0000004651105324   13.6960863482870359   -0.0000019106395650
    -0.3327533513840475   -0.0000026420200669   18.8435734257652570
   Na   Ta   Cl
    17    16    96
Direct
  0.3834562211738088  0.0920493729134435  0.7423274789090044
  0.1040676327702315  0.3440741158783496  0.7452418103802501
  0.0999071148279000  0.4057658130549200  0.2507960942123830
  0.3945860007736073  0.1542186071077367  0.2446635671966817
  0.9069114997769319  0.0931883856592748  0.7501806983178909
  0.6071193570144189  0.3460195631209686  0.7573062087379725
  0.6105790915418723  0.4042858024673492  0.2465878959076093
  0.8956528743914873  0.1544407296502541  0.2477603088474467
  0.3927917151865117  0.5948461478650415  0.7470303671424432
  0.1022311809025354  0.8455533911815323  0.7515003650404708
  0.1031939647269056  0.9063349413876765  0.2530847463066692
  0.3921948778226394  0.6623905556476402  0.2406890312093708
  0.8972299660301601  0.5945408525162321  0.7479424874320486
  0.6059301786890572  0.8416600463981183  0.7567580314853757
  0.6066100231908038  0.9066859610371694  0.2542678153171138
  0.8951336684037869  0.6556973607292349  0.2472810152920886
  0.3640933283085488  0.1952230499713323  0.5357190598562767
  0.1182640192206321  0.1374071853884118  0.6210095539254041
  0.3710865807791990  0.3909732180682184  0.8852882901094574
  0.3716025728541794  0.3668029614358375  0.3768362564708738
  0.1280226480429363  0.1082281170175747  0.1144868746983008
  0.6395558227425511  0.1391941996850434  0.6183291234348971
  0.8731165869351614  0.3920816587848890  0.8853351465292434
  0.8725825962382459  0.3579957306064543  0.3851833282547688
  0.6288203615208872  0.1076131552671740  0.1142842497322292
  0.1267229016376561  0.6415384043712606  0.6147361092665236
  0.3713943792678265  0.8908088943112631  0.8854697963663583
  0.3713472280152956  0.8603177069990053  0.3857272601825343
  0.1281159663110572  0.6089903080291208  0.1144292197069490
  0.6282458310650298  0.6410234563477033  0.6150968734388940
  0.8710002386838482  0.8907269101240871  0.8865269567529239
  0.8722786325137051  0.8578429879566869  0.3849425770811976
  0.6291685900952544  0.6090923422194550  0.1144131667788812
  0.1800347312671846  0.1534346221901046  0.7471235403475589
  0.3100388225805730  0.4063911264181712  0.7605796421406907
  0.3113809805534089  0.3491534494547679  0.2539522707539135
  0.1889076117804791  0.0944971098336467  0.2402205533742929
  0.2788914155563731  0.0440729242963229  0.6011822031285092
  0.2228706990332867  0.3010508016630098  0.9107053420714806
  0.2225409356498744  0.4535555960230937  0.4045415466589191
  0.2774785547599379  0.1984584072904099  0.0908888567460551
  0.0359841769822040  0.4956767548685477  0.6529280901977330
  0.4597647568150975  0.2444728048604716  0.8451352903910205
  0.4610415836962289  0.0073129119300646  0.3465300292028957
  0.0387514844196417  0.2548791000070167  0.1537143167330868
  0.0560705928510714  0.1207581055794975  0.5052442290028907
  0.4466541909136623  0.3732245790608602  0.9964926521212050
  0.4423223570913208  0.3788099505105578  0.4917904731533014
  0.0548110804664006  0.1262673293104228  0.0031826747721908
  0.4829649404221001  0.2317088335977857  0.6575069997340321
  0.0260262440030843  0.4804566180149266  0.8450132646337138
  0.0252106110143373  0.2679239428962674  0.3456025715329503
  0.4768869045504402  0.0163373448109638  0.1542520942322696
  0.2070309849509329  0.2917917305195132  0.5977935247079103
  0.2918826482528658  0.0394615138073817  0.9100376402509056
  0.2882077596704775  0.2147606988567574  0.3998696034992193
  0.2069212734212584  0.4597319678572873  0.0903342455569813
  0.6973467749119777  0.1557735845126729  0.7411954198842352
  0.8114599974227943  0.4067461635925014  0.7601281241446003
  0.8136108820591588  0.3432164192320002  0.2588168574230139
  0.6890997407922299  0.0946924231711748  0.2401194468137291
  0.7841667860720420  0.0499320338921123  0.5888634907018826
  0.7220301005233125  0.3034639714490552  0.9091741249267287
  0.7224149382307630  0.4478120421729344  0.4077914955435560
  0.7772087986337652  0.1989770670231863  0.0908088697028404
  0.5389526306544710  0.4943469439529693  0.6540806537499364
  0.9607487928383520  0.2451039375625683  0.8485122235525182
  0.9611669979454973  0.0047518588978619  0.3461405222118756
  0.5378617048539809  0.2540779875432051  0.1530633721633876
  0.5614882749839012  0.1237563816996783  0.5045574223901781
  0.9442990170856334  0.3756374097873518  0.9978183366400728
  0.9449219293824243  0.3753539995976070  0.4965840315129313
  0.5556391049193294  0.1249767320162505  0.0028211590804759
  0.9670209917623183  0.2343322093368556  0.6574722555717258
  0.5232353037040696  0.4832805447656483  0.8459207563217248
  0.5230767687126558  0.2718053269732010  0.3423204661664769
  0.9758248630581576  0.0176954465673163  0.1543968096242310
  0.7113793144797143  0.2900632700819656  0.5914157135713154
  0.7925116939143280  0.0401179753692773  0.9111630765927288
  0.7926176183240585  0.2087791399560857  0.4078605417495922
  0.7073106099329109  0.4588867693545424  0.0915149234576376
  0.1865624075387373  0.6560569192207453  0.7404223085560986
  0.3094222904081150  0.9022548841182925  0.7609215091568942
  0.3092322673971992  0.8474741820737250  0.2602514019752178
  0.1891099664094753  0.5933525526722647  0.2399944222502484
  0.2761272220530415  0.5503235161482891  0.5920157013751748
  0.2233254745460940  0.8001139932607089  0.9111684426243158
  0.2234305582191780  0.9515400496709532  0.4105388965272354
  0.2781648478772425  0.6990593735574748  0.0914086957023486
  0.0307553896360702  0.9866382930681539  0.6578524274883364
  0.4611646213693419  0.7437312768539286  0.8469467115589069
  0.4623365869544998  0.5107929751684921  0.3427418978474108
  0.0397263017161578  0.7554171896844366  0.1541429014754243
  0.0555507309946179  0.6234654170008298  0.5023077449784239
  0.4474709417005371  0.8738014429461813  0.9965549328563910
  0.4461833181323627  0.8773629822078846  0.4968233446496342
  0.0558982750730550  0.6273619706604521  0.0028387103233740
  0.4767666555398904  0.7325085333929877  0.6553026994642011
  0.0251420349101465  0.9797456893629075  0.8498948041696082
  0.0246604845020713  0.7673938601298715  0.3451992855399624
  0.4759086052379757  0.5191972110197156  0.1541364761216286
  0.2066843467870356  0.7900463952238184  0.5909312293722380
  0.2922153517097428  0.5402089401146668  0.9100155224721433
  0.2913972448152080  0.7117188843979605  0.4094117315221695
  0.2075749606866637  0.9592502869124999  0.0910442275189283
  0.6905127616191393  0.6548929419909442  0.7399518369394258
  0.8100531440571714  0.9073657277269263  0.7617285539346383
  0.8116644063417908  0.8438377662661267  0.2590931822548441
  0.6894125514217038  0.5942992006516334  0.2401119096391966
  0.7764343857483027  0.5503816355557944  0.5898312598472231
  0.7210155826633340  0.8005067353524069  0.9097217622251108
  0.7225738799158066  0.9480706695836361  0.4084044363626802
  0.7789748660493601  0.6978876489222117  0.0905015830867484
  0.5461373492655213  0.9951213583214766  0.6546985483550927
  0.9599598690073634  0.7444848477838093  0.8464516020701467
  0.9607618568839555  0.5051641013572947  0.3458493731029506
  0.5415114643860193  0.7566078713462119  0.1532902817849475
  0.5536047651244544  0.6241849952182434  0.5034787794513917
  0.9419973993792894  0.8707708499573670  0.9988046034401989
  0.9449284428621354  0.8749405198306164  0.4963654158825861
  0.5560342578735629  0.6261202885865842  0.0029920502062595
  0.9738037423706558  0.7314522604477034  0.6533721195773765
  0.5218020043071476  0.9830404891153108  0.8439716411900875
  0.5223505118955885  0.7689365407195154  0.3445107403016081
  0.9752162051962401  0.5188705094621895  0.1537502938983195
  0.7079876739375379  0.7898344909865784  0.5907059172715066
  0.7946504785532724  0.5421716683785434  0.9088495277080852
  0.7922113660908963  0.7087553770266766  0.4079541357772456
  0.7090081821165413  0.9590044826160948  0.0912476271146474
 
  0.00000000E+00  0.00000000E+00  0.00000000E+00
  0.00000000E+00  0.00000000E+00  0.00000000E+00
  0.00000000E+00  0.00000000E+00  0.00000000E+00
  0.00000000E+00  0.00000000E+00  0.00000000E+00
  0.00000000E+00  0.00000000E+00  0.00000000E+00
  0.00000000E+00  0.00000000E+00  0.00000000E+00
  0.00000000E+00  0.00000000E+00  0.00000000E+00
  0.00000000E+00  0.00000000E+00  0.00000000E+00
  0.00000000E+00  0.00000000E+00  0.00000000E+00
  0.00000000E+00  0.00000000E+00  0.00000000E+00
  0.00000000E+00  0.00000000E+00  0.00000000E+00
  0.00000000E+00  0.00000000E+00  0.00000000E+00
  0.00000000E+00  0.00000000E+00  0.00000000E+00
  0.00000000E+00  0.00000000E+00  0.00000000E+00
  0.00000000E+00  0.00000000E+00  0.00000000E+00
  0.00000000E+00  0.00000000E+00  0.00000000E+00
  0.00000000E+00  0.00000000E+00  0.00000000E+00
  0.00000000E+00  0.00000000E+00  0.00000000E+00
  0.00000000E+00  0.00000000E+00  0.00000000E+00
  0.00000000E+00  0.00000000E+00  0.00000000E+00
  0.00000000E+00  0.00000000E+00  0.00000000E+00
  0.00000000E+00  0.00000000E+00  0.00000000E+00
  0.00000000E+00  0.00000000E+00  0.00000000E+00
  0.00000000E+00  0.00000000E+00  0.00000000E+00
  0.00000000E+00  0.00000000E+00  0.00000000E+00
  0.00000000E+00  0.00000000E+00  0.00000000E+00
  0.00000000E+00  0.00000000E+00  0.00000000E+00
  0.00000000E+00  0.00000000E+00  0.00000000E+00
  0.00000000E+00  0.00000000E+00  0.00000000E+00
  0.00000000E+00  0.00000000E+00  0.00000000E+00
  0.00000000E+00  0.00000000E+00  0.00000000E+00
  0.00000000E+00  0.00000000E+00  0.00000000E+00
  0.00000000E+00  0.00000000E+00  0.00000000E+00
  0.00000000E+00  0.00000000E+00  0.00000000E+00
  0.00000000E+00  0.00000000E+00  0.00000000E+00
  0.00000000E+00  0.00000000E+00  0.00000000E+00
  0.00000000E+00  0.00000000E+00  0.00000000E+00
  0.00000000E+00  0.00000000E+00  0.00000000E+00
  0.00000000E+00  0.00000000E+00  0.00000000E+00
  0.00000000E+00  0.00000000E+00  0.00000000E+00
  0.00000000E+00  0.00000000E+00  0.00000000E+00
  0.00000000E+00  0.00000000E+00  0.00000000E+00
  0.00000000E+00  0.00000000E+00  0.00000000E+00
  0.00000000E+00  0.00000000E+00  0.00000000E+00
  0.00000000E+00  0.00000000E+00  0.00000000E+00
  0.00000000E+00  0.00000000E+00  0.00000000E+00
  0.00000000E+00  0.00000000E+00  0.00000000E+00
  0.00000000E+00  0.00000000E+00  0.00000000E+00
  0.00000000E+00  0.00000000E+00  0.00000000E+00
  0.00000000E+00  0.00000000E+00  0.00000000E+00
  0.00000000E+00  0.00000000E+00  0.00000000E+00
  0.00000000E+00  0.00000000E+00  0.00000000E+00
  0.00000000E+00  0.00000000E+00  0.00000000E+00
  0.00000000E+00  0.00000000E+00  0.00000000E+00
  0.00000000E+00  0.00000000E+00  0.00000000E+00
  0.00000000E+00  0.00000000E+00  0.00000000E+00
  0.00000000E+00  0.00000000E+00  0.00000000E+00
  0.00000000E+00  0.00000000E+00  0.00000000E+00
  0.00000000E+00  0.00000000E+00  0.00000000E+00
  0.00000000E+00  0.00000000E+00  0.00000000E+00
  0.00000000E+00  0.00000000E+00  0.00000000E+00
  0.00000000E+00  0.00000000E+00  0.00000000E+00
  0.00000000E+00  0.00000000E+00  0.00000000E+00
  0.00000000E+00  0.00000000E+00  0.00000000E+00
  0.00000000E+00  0.00000000E+00  0.00000000E+00
  0.00000000E+00  0.00000000E+00  0.00000000E+00
  0.00000000E+00  0.00000000E+00  0.00000000E+00
  0.00000000E+00  0.00000000E+00  0.00000000E+00
  0.00000000E+00  0.00000000E+00  0.00000000E+00
  0.00000000E+00  0.00000000E+00  0.00000000E+00
  0.00000000E+00  0.00000000E+00  0.00000000E+00
  0.00000000E+00  0.00000000E+00  0.00000000E+00
  0.00000000E+00  0.00000000E+00  0.00000000E+00
  0.00000000E+00  0.00000000E+00  0.00000000E+00
  0.00000000E+00  0.00000000E+00  0.00000000E+00
  0.00000000E+00  0.00000000E+00  0.00000000E+00
  0.00000000E+00  0.00000000E+00  0.00000000E+00
  0.00000000E+00  0.00000000E+00  0.00000000E+00
  0.00000000E+00  0.00000000E+00  0.00000000E+00
  0.00000000E+00  0.00000000E+00  0.00000000E+00
  0.00000000E+00  0.00000000E+00  0.00000000E+00
  0.00000000E+00  0.00000000E+00  0.00000000E+00
  0.00000000E+00  0.00000000E+00  0.00000000E+00
  0.00000000E+00  0.00000000E+00  0.00000000E+00
  0.00000000E+00  0.00000000E+00  0.00000000E+00
  0.00000000E+00  0.00000000E+00  0.00000000E+00
  0.00000000E+00  0.00000000E+00  0.00000000E+00
  0.00000000E+00  0.00000000E+00  0.00000000E+00
  0.00000000E+00  0.00000000E+00  0.00000000E+00
  0.00000000E+00  0.00000000E+00  0.00000000E+00
  0.00000000E+00  0.00000000E+00  0.00000000E+00
  0.00000000E+00  0.00000000E+00  0.00000000E+00
  0.00000000E+00  0.00000000E+00  0.00000000E+00
  0.00000000E+00  0.00000000E+00  0.00000000E+00
  0.00000000E+00  0.00000000E+00  0.00000000E+00
  0.00000000E+00  0.00000000E+00  0.00000000E+00
  0.00000000E+00  0.00000000E+00  0.00000000E+00
  0.00000000E+00  0.00000000E+00  0.00000000E+00
  0.00000000E+00  0.00000000E+00  0.00000000E+00
  0.00000000E+00  0.00000000E+00  0.00000000E+00
  0.00000000E+00  0.00000000E+00  0.00000000E+00
  0.00000000E+00  0.00000000E+00  0.00000000E+00
  0.00000000E+00  0.00000000E+00  0.00000000E+00
  0.00000000E+00  0.00000000E+00  0.00000000E+00
  0.00000000E+00  0.00000000E+00  0.00000000E+00
  0.00000000E+00  0.00000000E+00  0.00000000E+00
  0.00000000E+00  0.00000000E+00  0.00000000E+00
  0.00000000E+00  0.00000000E+00  0.00000000E+00
  0.00000000E+00  0.00000000E+00  0.00000000E+00
  0.00000000E+00  0.00000000E+00  0.00000000E+00
  0.00000000E+00  0.00000000E+00  0.00000000E+00
  0.00000000E+00  0.00000000E+00  0.00000000E+00
  0.00000000E+00  0.00000000E+00  0.00000000E+00
  0.00000000E+00  0.00000000E+00  0.00000000E+00
  0.00000000E+00  0.00000000E+00  0.00000000E+00
  0.00000000E+00  0.00000000E+00  0.00000000E+00
  0.00000000E+00  0.00000000E+00  0.00000000E+00
  0.00000000E+00  0.00000000E+00  0.00000000E+00
  0.00000000E+00  0.00000000E+00  0.00000000E+00
  0.00000000E+00  0.00000000E+00  0.00000000E+00
  0.00000000E+00  0.00000000E+00  0.00000000E+00
  0.00000000E+00  0.00000000E+00  0.00000000E+00
  0.00000000E+00  0.00000000E+00  0.00000000E+00
  0.00000000E+00  0.00000000E+00  0.00000000E+00
  0.00000000E+00  0.00000000E+00  0.00000000E+00
  0.00000000E+00  0.00000000E+00  0.00000000E+00
  0.00000000E+00  0.00000000E+00  0.00000000E+00
  0.00000000E+00  0.00000000E+00  0.00000000E+00
  0.00000000E+00  0.00000000E+00  0.00000000E+00
