Na   Ta   Cl
   1.00000000000000     
  12.8086700406632001   0.0000004227264436  -0.0315492974735766
   0.0000004651105324  13.6960863482870003  -0.0000019106395650
  -0.3327533513840470  -0.0000026420200669  18.8435734257652996
Na   Ta   Cl
15  16  96  
Direct
  0.3851688289844617  0.0971037352413191  0.7424743005569638  
  0.1047866555943457  0.4044439737037777  0.2529250135085590  
  0.3948539518526744  0.1538920308045206  0.2468701347449240  
  0.8999901503371674  0.0979351045353596  0.7455108507272925  
  0.6074876367651925  0.3414320893629252  0.7632794052656067  
  0.6047065599829153  0.4042847713139750  0.2524858277765816  
  0.8942611464315107  0.1539135183623657  0.2472874015699915  
  0.3904337039161376  0.5890014185296479  0.7459256570883994  
  0.1012757274530998  0.8481978092341720  0.7460284225983855  
  0.1044153589226013  0.9038521484186360  0.2532761711085172  
  0.3949500685372840  0.6543055120272143  0.2460527544079341  
  0.8985331486324455  0.5896408914270310  0.7493872541302693  
  0.6048316180730211  0.8446708479381755  0.7530015205097271  
  0.6039621727370417  0.9037979177187908  0.2527846181691800  
  0.8941309547932690  0.6547231001458087  0.2462790411636391  
  0.1265283656904188  0.1500360929208568  0.6187388693100786  
  0.3629927646985891  0.3904986567479440  0.8835307052310526  
  0.3713454817195370  0.3572760578375238  0.3850104303650141  
  0.1280533389391891  0.1068512192042164  0.1153308337809804  
  0.6279228701275130  0.1420242764122577  0.6151934735488993  
  0.8761621316951107  0.3886364491076222  0.8812776803166216  
  0.8713891079590894  0.3575478458253016  0.3848830378893027  
  0.6280105371046929  0.1074042873439325  0.1143313472651997  
  0.1262158638537372  0.6395061862937155  0.6161053140454982  
  0.3707138579048745  0.8917899958951168  0.8847113920495033  
  0.3707090668795487  0.8571032574153037  0.3857597007551661  
  0.1277839653827186  0.6065307556910895  0.1144711184632712  
  0.6283645377943117  0.6398963156482367  0.6157450156121627  
  0.8719903970443283  0.8910819407011417  0.8841267974827218  
  0.8709685149135211  0.8574950138050568  0.3855268726348626  
  0.6281340128832511  0.6067564152795981  0.1136853129881032  
  0.1824759628771417  0.1633385743238449  0.7418002646203732  
  0.2992568703208818  0.4048200246321088  0.7630007428714407  
  0.3101989926313280  0.3417460314118870  0.2593918174284937  
  0.1890094808346703  0.0917489690590401  0.2410393855427415  
  0.2766744200329967  0.0553022359937501  0.5964047076941057  
  0.2187420167973002  0.3003049743729562  0.9150875371011792  
  0.2220331131738149  0.4475919653177982  0.4083034455268191  
  0.2774430993757235  0.1967595372013093  0.0919055080861497  
  0.0434354485568988  0.4947286903450774  0.6547993205985492  
  0.4540489890084274  0.2432055249517973  0.8448503218721513  
  0.4599603944409338  0.0033625232884376  0.3455371944887986  
  0.0390417173008757  0.2532415822597613  0.1549646859565144  
  0.0599035711611364  0.1239232008972735  0.5043945156898673  
  0.4453417579898300  0.3732929215610739  0.9941281014337804  
  0.4449132469691293  0.3764121541417325  0.4961445337974979  
  0.0545149010914798  0.1247137259989657  0.0041899780341481  
  0.4783745439971696  0.2350178271803003  0.6555942688532639  
  0.0263796937912844  0.4752619715572877  0.8435569923993285  
  0.0238204388574275  0.2669737263684411  0.3454551371104841  
  0.4754588909942825  0.0166141067896817  0.1541561897266490  
  0.2087471033524366  0.2947299441593287  0.5894719158907336  
  0.2916698752131381  0.0403537437984127  0.9107401989828716  
  0.2925133873001045  0.2084766820621553  0.4092956331824169  
  0.2072205961780753  0.4576175432632112  0.0912465050640989  
  0.6917077310697266  0.1552576893975015  0.7393740217192359  
  0.8112669476831016  0.4034798335164211  0.7566360654250559  
  0.8102372930950494  0.3418734637604288  0.2591797046320607  
  0.6887543992570997  0.0918503005837792  0.2401882060097549  
  0.7755921358071376  0.0504203145937510  0.5895013856400269  
  0.7200143531617513  0.3039109613060518  0.9060805025275868  
  0.7215784705247543  0.4475982134662360  0.4078616758066218  
  0.7776055182392483  0.1971569992785334  0.0911956665251097  
  0.5419155352510288  0.4931430418495921  0.6553422466869421  
  0.9573214340002424  0.2397148156885933  0.8469481198117776  
  0.9600011659190740  0.0038088152078970  0.3457851002201409  
  0.5390262051638999  0.2536314983693941  0.1542372005410400  
  0.5518767455440710  0.1231873935419330  0.5039795112971177  
  0.9417085655861824  0.3722395835023420  0.9960286271449660  
  0.9443230599334242  0.3771876211229781  0.4959836660570502  
  0.5552313326294680  0.1258714146683459  0.0030536395724141  
  0.9720739939762524  0.2357760821933113  0.6509709637621626  
  0.5177178169071439  0.4829957235826470  0.8446392559364142  
  0.5239472358690662  0.2667700746015598  0.3452278014718431  
  0.9755111083490888  0.0160995243347841  0.1551539500537444  
  0.7080131170426398  0.2896205812634776  0.5886193909764827  
  0.7920688248786121  0.0392697696096889  0.9098700974759950  
  0.7922593612825182  0.2085708783738696  0.4090892666258057  
  0.7075587507522343  0.4582081958271473  0.0897275614089068  
  0.1880010499469620  0.6597431995109346  0.7409182812760307  
  0.3077059167805629  0.9075198768286796  0.7604596201259426  
  0.3098242740605670  0.8417508812786210  0.2599524990385547  
  0.1891200872608394  0.5921712268560881  0.2402736149175126  
  0.2798925069249663  0.5552865331815866  0.5914390776189578  
  0.2222425964162724  0.8015005226282099  0.9101913228736862  
  0.2216389009691895  0.9474599566780456  0.4089974413769397  
  0.2771123159439881  0.6969294323367308  0.0910053710805840  
  0.0363518317095881  0.9984786194304788  0.6544319557798204  
  0.4589069267321122  0.7453929016499785  0.8446627687359651  
  0.4601458449427298  0.5037542139034841  0.3446601779944629  
  0.0390235540340811  0.7532969787668691  0.1543780745195988  
  0.0563385806818317  0.6233141696719144  0.5027518952864583  
  0.4462128148316609  0.8731005148984536  0.9960801342881496  
  0.4436919628021840  0.8755444668860406  0.4970916443853639  
  0.0544242803176047  0.6244367271042535  0.0032523320441271  
  0.4757471026432469  0.7300876503917806  0.6556715893036369  
  0.0247933836821090  0.9812498379779556  0.8463118255458255  
  0.0231703927846496  0.7667095207941870  0.3455245196526633  
  0.4757345301697242  0.5163844995741798  0.1535405221439348  
  0.2023016430868410  0.7921185272726703  0.5920086591719098  
  0.2884667862966168  0.5408629915275753  0.9117227179831104  
  0.2916502496349338  0.7081010957941061  0.4096036957458296  
  0.2072454412945177  0.9576332503868200  0.0915857068804371  
  0.6920035457490670  0.6566311944360024  0.7396914719795902  
  0.8110239049192316  0.9080919214458518  0.7593039847073584  
  0.8097675921497824  0.8423276952388719  0.2597322502415267  
  0.6891388211778633  0.5917347999898865  0.2396206440603166  
  0.7779314727657365  0.5515024213043063  0.5896507283135293  
  0.7223301717091175  0.8002053621148946  0.9071099841797974  
  0.7213409775046742  0.9475702331004214  0.4086395952102535  
  0.7775027704923900  0.6974933199707678  0.0909402586666701  
  0.5378235829228473  0.9959430571479616  0.6549198482061200  
  0.9615931927215228  0.7453719939419869  0.8447457794184530  
  0.9599200955568890  0.5040593930578581  0.3446264229801201  
  0.5390777582612785  0.7533198121444613  0.1541397511769134  
  0.5535168035917692  0.6220339721308292  0.5040674190342429  
  0.9435012287110424  0.8716096235497446  0.9965602321097436  
  0.9439045262846548  0.8758185718841816  0.4967540165654825  
  0.5553523565435370  0.6257807342331816  0.0025021867064012  
  0.9718328757975244  0.7297369689803688  0.6540956482571261  
  0.5220449677605146  0.9830772871389540  0.8445912635236255  
  0.5232680573723272  0.7665032839054362  0.3457866940193028  
  0.9753655622142928  0.5163197143468281  0.1544745720963761  
  0.7053364462579950  0.7900960380011739  0.5901256875716427  
  0.7943008401081499  0.5391394796177948  0.9049958033491804  
  0.7916024209055266  0.7083902877775188  0.4092410943067435  
  0.7070504007922764  0.9580937707324466  0.0906599308264049  
