Na   Ta   Cl
   1.00000000000000     
  12.8086700406632001   0.0000004227264436  -0.0315492974735766
   0.0000004651105324  13.6960863482870003  -0.0000019106395650
  -0.3327533513840470  -0.0000026420200669  18.8435734257652996
Na   Ta   Cl
17  16  96  
Direct
  0.3668229426647116  0.8865247109691197  0.6174754630103934  
  0.3966284882637439  0.1019311248948469  0.7548452080871471  
  0.1080517257894158  0.3437583902241030  0.7594678742984797  
  0.1046566211768010  0.4045803149195208  0.2534390859236026  
  0.3939283830296318  0.1564464889941561  0.2443871707253606  
  0.8968742076971381  0.0947798438675136  0.7492830756977682  
  0.6077287385263261  0.3462178434016181  0.7573062896418605  
  0.6045477007119899  0.4049997280095141  0.2537634106909721  
  0.8952517595518046  0.1539340954963393  0.2474649524770598  
  0.3931829133587499  0.5916084099125030  0.7503873857094661  
  0.0988793921231377  0.8461719655638120  0.7537064307929313  
  0.0988027743559812  0.9044163454319404  0.2513391754906991  
  0.3944515245167963  0.6513263418729096  0.2432481805217321  
  0.8975186895333209  0.5955450271314788  0.7544568524872446  
  0.6136587092302861  0.8409475425579558  0.7595566784664385  
  0.6090630608579275  0.9037189669668776  0.2480637681652098  
  0.8959407043767484  0.6541245634036628  0.2477512614332653  
  0.1240981405974253  0.1483232939144514  0.6141336035163789  
  0.3720679116836152  0.3933921044986661  0.8865811791483011  
  0.3706896953791414  0.3577275403132205  0.3845734400990892  
  0.1282522552092260  0.1080131526564045  0.1154358386814707  
  0.6293517269893272  0.1441645555498354  0.6154283133347178  
  0.8726290124856320  0.3918244321138289  0.8862504332502965  
  0.8701399994376047  0.3571877493595323  0.3838365267054655  
  0.6288750988224407  0.1087606503691561  0.1146389862550166  
  0.1207784825291469  0.6377138813007974  0.6129680457133233  
  0.3720685878449075  0.8928150645928241  0.8875791139801379  
  0.3743780213636470  0.8565752076070439  0.3799660065766659  
  0.1278103716848733  0.6074032118156580  0.1154102482382271  
  0.6322377971489743  0.6363440583013897  0.6143688602533359  
  0.8729840292979461  0.8930757934930682  0.8861042591133170  
  0.8716707170190361  0.8581740256804977  0.3851305838425532  
  0.6295986418154271  0.6074616238633865  0.1137880471620889  
  0.1902115257863812  0.1589895185867363  0.7384251572323990  
  0.3125605613563920  0.4055378566719625  0.7599684248724330  
  0.3105325067061955  0.3435704119200267  0.2592196635339050  
  0.1888348636475712  0.0911171842390956  0.2407137633580092  
  0.2800674506356771  0.0645292879329489  0.5856277128666108  
  0.2231705579391345  0.3018547378538372  0.9090449535099268  
  0.2212406667326832  0.4481366173585002  0.4082217057098489  
  0.2782830627857180  0.1975390188662232  0.0920333308517556  
  0.0400751687748766  0.4926889995845869  0.6566490050813414  
  0.4640678574285602  0.2475031193085400  0.8484086962235651  
  0.4617621397389584  0.0033897545740658  0.3417742725419686  
  0.0397756533006088  0.2543090083627888  0.1550861456082941  
  0.0516195587853332  0.1265692600711503  0.5031546997459344  
  0.4432028583438949  0.3760432647341432  0.9982964363855160  
  0.4427447632775383  0.3756926272443408  0.4968087183120247  
  0.0559589934058522  0.1272899161910956  0.0035942704806402  
  0.4773051212139094  0.2326612377710831  0.6563835556613000  
  0.0262909608722950  0.4826314176580482  0.8477175718518097  
  0.0232519029881857  0.2667688948851605  0.3458358803205854  
  0.4758278706319530  0.0178600670222480  0.1532994757156061  
  0.2025945806547256  0.2970442010819454  0.5899090736497925  
  0.2930361331361411  0.0424386230870724  0.9093331577930216  
  0.2906286600063410  0.2088782356877275  0.4085069070178378  
  0.2074232870734463  0.4587013205306505  0.0911164677215055  
  0.6917896821902971  0.1587679208815587  0.7400115129091347  
  0.8136592803266609  0.4068228371500453  0.7599754796187241  
  0.8104390459479163  0.3425457239022762  0.2587492494443495  
  0.6893483181419668  0.0932347613255686  0.2398406364086085  
  0.7758966749826968  0.0504664929096421  0.5918373064555311  
  0.7227188783196397  0.3023683672959194  0.9090569570849496  
  0.7208175780070505  0.4477228413468808  0.4076387182492951  
  0.7785602004451277  0.1978817592345621  0.0904890891144703  
  0.5406985020373440  0.4927121852549377  0.6544746005338737  
  0.9616331374423268  0.2451028794062537  0.8467573753636159  
  0.9626048052944752  0.0043829721317294  0.3471032533427802  
  0.5402529911940377  0.2551713178392205  0.1540287505757192  
  0.5511712976075316  0.1200401992700506  0.5062164014468777  
  0.9447681211050636  0.3733911447456109  0.9977125093992782  
  0.9420509375061954  0.3750535490282658  0.4962696823646766  
  0.5557208094842565  0.1272032462283406  0.0028856897669840  
  0.9730052593631128  0.2344859931873344  0.6553366457368313  
  0.5243364005301316  0.4845102670990329  0.8471013287694618  
  0.5229631314726291  0.2664890097157269  0.3460179016416802  
  0.9746863806315672  0.0178712384755784  0.1537844423097852  
  0.7075139976163953  0.2907318209772711  0.5876917764938696  
  0.7916284508382105  0.0413261638539453  0.9084202118119578  
  0.7904967025662444  0.2082491951653722  0.4080914824158626  
  0.7089847517284866  0.4589387540645475  0.0890131703829837  
  0.1916759274008513  0.6636691723882038  0.7349753353634796  
  0.3060868975349251  0.9122889536384235  0.7591367400268538  
  0.3070530162509897  0.8417403777890371  0.2588578235226677  
  0.1882595278415238  0.5930794747780155  0.2409456841392696  
  0.2745589553132461  0.5566934344709011  0.5871689326091953  
  0.2216922007172926  0.8035188317168505  0.9082496238819716  
  0.2296389049635010  0.9470251164877652  0.4128474931336044  
  0.2775923784652647  0.6976831073281531  0.0919699855010165  
  0.0437943471552273  0.9974345733424386  0.6531253827623118  
  0.4580925149490085  0.7474274621836159  0.8450192201538584  
  0.4601753082314133  0.5042923941355468  0.3457324397957535  
  0.0384153843805066  0.7539843839459337  0.1545787204144276  
  0.0445732695799705  0.6164611144562286  0.5031154764931571  
  0.4430773353120401  0.8737003951200961  0.9985129404080696  
  0.4626356119984507  0.8737999980514672  0.4902742845606767  
  0.0554742815694098  0.6266704142468598  0.0036245532130366  
  0.4763524274328219  0.7271014611666757  0.6593445911988240  
  0.0255842709759833  0.9840654873938206  0.8474611205505624  
  0.0254800831689934  0.7675719650349038  0.3480529228254881  
  0.4774986760797901  0.5156663899099456  0.1529221625399515  
  0.1890107733202484  0.7926290031175967  0.5796407694399193  
  0.2912069157704309  0.5422678511626842  0.9082635373094520  
  0.2969257955829789  0.7091450074472547  0.4103971440657901  
  0.2064446469271957  0.9584721055493616  0.0906739903983578  
  0.6919461310798312  0.6523479225820950  0.7395558046900064  
  0.8157585056274357  0.9065541852918456  0.7591752613105527  
  0.8144686563565955  0.8432658042944894  0.2591561021660382  
  0.6899139424667808  0.5928920804619793  0.2390832768760092  
  0.7794830015081757  0.5484995107399939  0.5876588274902161  
  0.7229280061463612  0.8017848086576222  0.9071590925405461  
  0.7217855656669272  0.9486289267464300  0.4068237473026244  
  0.7782290212831455  0.6985549880216126  0.0903312106719127  
  0.5411437393990610  0.9945506228743994  0.6604350533692980  
  0.9636004693050068  0.7463958350388964  0.8477750175859242  
  0.9598480629975938  0.5037418221443062  0.3454870809451265  
  0.5386416117626069  0.7535472627470412  0.1527617795125806  
  0.5525636034537129  0.6227636477025129  0.5047299715685867  
  0.9432135810271234  0.8747994443149381  0.9980016158198880  
  0.9407006270476970  0.8766065218916026  0.4980739537791905  
  0.5560683675559517  0.6265667855562214  0.0021506346115814  
  0.9708247527136322  0.7286734423916172  0.6552064799010466  
  0.5239126330629986  0.9818774059503140  0.8467933920942698  
  0.5249695796055036  0.7651349066351827  0.3399872390463869  
  0.9754855271473843  0.5167868190559091  0.1542762264577462  
  0.7050345764908599  0.7884033158214621  0.5917998735665009  
  0.7936815812593352  0.5414085291002237  0.9089885111153820  
  0.7913655946425848  0.7091963244371087  0.4084030204864675  
  0.7071925463968824  0.9589373419193450  0.0904669856074136  
