supercell of natacl6_p21c.cif           
   1.00000000000000     
    12.8086700406632197    0.0000004227264436   -0.0315492974735766
     0.0000004651105324   13.6960863482870359   -0.0000019106395650
    -0.3327533513840475   -0.0000026420200669   18.8435734257652570
   Na   Zr   Ta   Cl
    16     1    15    96
Direct
  0.3935576096869156  0.0936996018126806  0.7441973881988417
  0.1045195581445171  0.3454067931991531  0.7505646583337651
  0.1055550479862646  0.4054450468768493  0.2523203824906943
  0.3951581443570973  0.1546399924208899  0.2472378238469801
  0.8961110504271943  0.0947187228956707  0.7451054864590176
  0.6045194548475052  0.3453701988142086  0.7534564227740859
  0.6045981686679625  0.4050960443198335  0.2523709921199000
  0.8945138230890279  0.1545796028947919  0.2468096670228306
  0.3952312562621785  0.5951064426549664  0.7475002325697915
  0.1045523501822956  0.8442139242379980  0.7537222284041647
  0.1056242858361927  0.9045223754361942  0.2531999372008116
  0.3950681422702189  0.6552142320277383  0.2471517242255317
  0.8952134495109689  0.5949479882652824  0.7471954308302742
  0.6046638752300666  0.8444340098590075  0.7536246823765964
  0.6047129170581300  0.9049753452698184  0.2530161185601756
  0.8947823538311823  0.6551369165755148  0.2467917779452975
  0.1295867073110628  0.1379759805071075  0.6179354336701621
  0.3719005855873263  0.3918861238589457  0.8852993853264692
  0.3721524762709763  0.3579389413308647  0.3850803518079431
  0.1283022146944148  0.1079508567948579  0.1149411360787269
  0.6291335800494053  0.1423594094440688  0.6150184439165258
  0.8714275785721171  0.3920911332304158  0.8849902288052789
  0.8717537097891963  0.3585129824108861  0.3850120348259551
  0.6281028584000552  0.1081048201452077  0.1149066788477953
  0.1285561702328977  0.6423900081310023  0.6146726107946208
  0.3719001600723502  0.8918193178133862  0.8852137402061757
  0.3720175517189972  0.8578670914863906  0.3850157697206100
  0.1282413406192902  0.6082881406476872  0.1148215536273369
  0.6281674976846929  0.6418215741180902  0.6150399717112407
  0.8712128804017709  0.8919393029033174  0.8853006720293379
  0.8715149158773414  0.8580676962214540  0.3844253223785401
  0.6282127558648227  0.6082371143000245  0.1149310024378849
  0.1913384780968173  0.1582588641588458  0.7463801228542906
  0.3106486680764675  0.4071409267164299  0.7602719867198147
  0.3110995105339143  0.3432495380534917  0.2596512110408185
  0.1891381587164034  0.0932416433888719  0.2403200004875217
  0.2895810212416308  0.0508403690448560  0.5901719546010114
  0.2227627932113521  0.3024628044506130  0.9100947516706270
  0.2227586841152913  0.4477063928310585  0.4092225639782114
  0.2773270971408763  0.1985200262477349  0.0912672838280102
  0.0397287437747167  0.4954319689332323  0.6534045954872809
  0.4604079948759434  0.2453368193647520  0.8457738667943602
  0.4612816751162256  0.0045386164471140  0.3457373009963192
  0.0388274158189006  0.2545469068067518  0.1545558835357141
  0.0532581649794750  0.1234162660366138  0.4982011489398985
  0.4458422700352997  0.3741959767693999  0.9967995977950750
  0.4458182517163607  0.3763348991186461  0.4964236093739203
  0.0548657303520557  0.1268477984120011  0.0034854832889977
  0.4767339408143414  0.2331676387225130  0.6550082250655009
  0.0240064485087643  0.4822144660963303  0.8450989587571200
  0.0241445124576103  0.2675649259600661  0.3452605944619904
  0.4757992885728015  0.0173128678016070  0.1543402230856685
  0.2096908183001318  0.2979306432133058  0.5891347385912411
  0.2925605269797700  0.0403344457263799  0.9099884872268760
  0.2933261499011692  0.2086635324762582  0.4091675353611706
  0.2074202035854000  0.4590969673209031  0.0910384181948274
  0.6905962099192777  0.1575758031068091  0.7401792186264444
  0.8097495770826342  0.4076173325814878  0.7601060552051280
  0.8105792218300394  0.3433873944050987  0.2597456157017106
  0.6889336719175674  0.0932564601211112  0.2404421094258282
  0.7783375695240693  0.0527599723187606  0.5902801821801944
  0.7220026078142752  0.3021254020066237  0.9091538245148101
  0.7225344471732669  0.4483898413099041  0.4090031850986620
  0.7773813567147130  0.1985689340522754  0.0913322392103169
  0.5389180945158927  0.4953990559008048  0.6542248761727194
  0.9599007097115901  0.2454717495999077  0.8458223356251935
  0.9605138453775908  0.0040275022616143  0.3444199354066839
  0.5388545756129801  0.2546298242189380  0.1542952425504609
  0.5539666853425942  0.1234704578984278  0.5040775523765078
  0.9451887990504702  0.3736082982456566  0.9965871046642292
  0.9456895340436589  0.3763233912546440  0.4964150042379813
  0.5551435662305124  0.1263591140263358  0.0033747602396446
  0.9731688857723810  0.2388263439152496  0.6564784901236322
  0.5245157659582418  0.4829363817445511  0.8458189166066745
  0.5246149335651893  0.2672611216715310  0.3454236946436211
  0.9760489524559119  0.0170331513857178  0.1541749199536113
  0.7075678487785169  0.2912666956332828  0.5902871527074751
  0.7921215219843987  0.0410277084765909  0.9097738756422942
  0.7931965914122614  0.2091715184937897  0.4093427027366801
  0.7074368345955691  0.4590485621799232  0.0910282550143009
  0.1890895754089641  0.6564440210443721  0.7402282989991491
  0.3107542490675641  0.9057639532730875  0.7599537350491730
  0.3112448569398367  0.8433117023041490  0.2593593980124922
  0.1892065912788894  0.5935219821432085  0.2403700223644734
  0.2784243968487630  0.5529012283246004  0.5909339788086498
  0.2227234807831024  0.8012044936631355  0.9089485861940290
  0.2230287150281569  0.9479953099381788  0.4086983862429392
  0.2773898244134969  0.6984810935143599  0.0911572557570679
  0.0333718798897777  0.9879517449829152  0.6556533409003222
  0.4615148897842190  0.7451480859870543  0.8460502647300743
  0.4609090941528819  0.5045954066176179  0.3456647116139351
  0.0390180306988199  0.7547067436192805  0.1542245452719087
  0.0557076947261237  0.6237371461084749  0.5028699799898746
  0.4454528467419010  0.8730939631216472  0.9966580821712014
  0.4459398998259019  0.8753218744987734  0.4962611670331469
  0.0550805173916871  0.6261364624116936  0.0033841007587085
  0.4759809316236314  0.7327303153167648  0.6544116560648234
  0.0235639401278789  0.9826182491634796  0.8457985667249872
  0.0238402792068939  0.7668429258258769  0.3453417293744536
  0.4756729184502646  0.5175335978411653  0.1544573465570664
  0.2069319096257161  0.7917456600450805  0.5908984240561068
  0.2930997968485585  0.5414800287415886  0.9093303923233762
  0.2926654614111328  0.7087086920477148  0.4087993779024117
  0.2075990866016468  0.9591376989238682  0.0906687017710723
  0.6891810015570528  0.6566103740464015  0.7403587138052359
  0.8098149292848476  0.9070253769663452  0.7602728358380517
  0.8099541087696309  0.8424896279543717  0.2592300791007318
  0.6891150911878938  0.5932178822675525  0.2404067651631721
  0.7773714398163634  0.5513114495134204  0.5911998585923470
  0.7223343504153661  0.8013942440035109  0.9093498786277650
  0.7224023058531799  0.9484866985071534  0.4086152343303624
  0.7774201168002719  0.6984169184953828  0.0912296303018394
  0.5415522377616782  0.9952278125485776  0.6548106722699245
  0.9604310204474018  0.7452937517087292  0.8459343451553210
  0.9608533903312306  0.5049470491782060  0.3456697348439022
  0.5390876599384811  0.7547366099972663  0.1541512664382196
  0.5551782230845035  0.6237746171491310  0.5032836504333389
  0.9444883758390858  0.8735404359157286  0.9968567602087361
  0.9451662356280721  0.8770041989777582  0.4957970409497250
  0.5551540421704999  0.6261164654565334  0.0033746126598899
  0.9755714248574421  0.7315938087437885  0.6541351738744368
  0.5235281138711940  0.9832346928752926  0.8452981334030838
  0.5243047235709710  0.7669074463861136  0.3450924361672421
  0.9757711771045976  0.5173642115548631  0.1544720408067590
  0.7078119112101291  0.7908194711548404  0.5908830024291873
  0.7927844618218742  0.5412917111370135  0.9098402856324270
  0.7923902153205162  0.7090361474018394  0.4091499861430705
  0.7075202231085100  0.9591636090002140  0.0909521280449184
 
  0.00000000E+00  0.00000000E+00  0.00000000E+00
  0.00000000E+00  0.00000000E+00  0.00000000E+00
  0.00000000E+00  0.00000000E+00  0.00000000E+00
  0.00000000E+00  0.00000000E+00  0.00000000E+00
  0.00000000E+00  0.00000000E+00  0.00000000E+00
  0.00000000E+00  0.00000000E+00  0.00000000E+00
  0.00000000E+00  0.00000000E+00  0.00000000E+00
  0.00000000E+00  0.00000000E+00  0.00000000E+00
  0.00000000E+00  0.00000000E+00  0.00000000E+00
  0.00000000E+00  0.00000000E+00  0.00000000E+00
  0.00000000E+00  0.00000000E+00  0.00000000E+00
  0.00000000E+00  0.00000000E+00  0.00000000E+00
  0.00000000E+00  0.00000000E+00  0.00000000E+00
  0.00000000E+00  0.00000000E+00  0.00000000E+00
  0.00000000E+00  0.00000000E+00  0.00000000E+00
  0.00000000E+00  0.00000000E+00  0.00000000E+00
  0.00000000E+00  0.00000000E+00  0.00000000E+00
  0.00000000E+00  0.00000000E+00  0.00000000E+00
  0.00000000E+00  0.00000000E+00  0.00000000E+00
  0.00000000E+00  0.00000000E+00  0.00000000E+00
  0.00000000E+00  0.00000000E+00  0.00000000E+00
  0.00000000E+00  0.00000000E+00  0.00000000E+00
  0.00000000E+00  0.00000000E+00  0.00000000E+00
  0.00000000E+00  0.00000000E+00  0.00000000E+00
  0.00000000E+00  0.00000000E+00  0.00000000E+00
  0.00000000E+00  0.00000000E+00  0.00000000E+00
  0.00000000E+00  0.00000000E+00  0.00000000E+00
  0.00000000E+00  0.00000000E+00  0.00000000E+00
  0.00000000E+00  0.00000000E+00  0.00000000E+00
  0.00000000E+00  0.00000000E+00  0.00000000E+00
  0.00000000E+00  0.00000000E+00  0.00000000E+00
  0.00000000E+00  0.00000000E+00  0.00000000E+00
  0.00000000E+00  0.00000000E+00  0.00000000E+00
  0.00000000E+00  0.00000000E+00  0.00000000E+00
  0.00000000E+00  0.00000000E+00  0.00000000E+00
  0.00000000E+00  0.00000000E+00  0.00000000E+00
  0.00000000E+00  0.00000000E+00  0.00000000E+00
  0.00000000E+00  0.00000000E+00  0.00000000E+00
  0.00000000E+00  0.00000000E+00  0.00000000E+00
  0.00000000E+00  0.00000000E+00  0.00000000E+00
  0.00000000E+00  0.00000000E+00  0.00000000E+00
  0.00000000E+00  0.00000000E+00  0.00000000E+00
  0.00000000E+00  0.00000000E+00  0.00000000E+00
  0.00000000E+00  0.00000000E+00  0.00000000E+00
  0.00000000E+00  0.00000000E+00  0.00000000E+00
  0.00000000E+00  0.00000000E+00  0.00000000E+00
  0.00000000E+00  0.00000000E+00  0.00000000E+00
  0.00000000E+00  0.00000000E+00  0.00000000E+00
  0.00000000E+00  0.00000000E+00  0.00000000E+00
  0.00000000E+00  0.00000000E+00  0.00000000E+00
  0.00000000E+00  0.00000000E+00  0.00000000E+00
  0.00000000E+00  0.00000000E+00  0.00000000E+00
  0.00000000E+00  0.00000000E+00  0.00000000E+00
  0.00000000E+00  0.00000000E+00  0.00000000E+00
  0.00000000E+00  0.00000000E+00  0.00000000E+00
  0.00000000E+00  0.00000000E+00  0.00000000E+00
  0.00000000E+00  0.00000000E+00  0.00000000E+00
  0.00000000E+00  0.00000000E+00  0.00000000E+00
  0.00000000E+00  0.00000000E+00  0.00000000E+00
  0.00000000E+00  0.00000000E+00  0.00000000E+00
  0.00000000E+00  0.00000000E+00  0.00000000E+00
  0.00000000E+00  0.00000000E+00  0.00000000E+00
  0.00000000E+00  0.00000000E+00  0.00000000E+00
  0.00000000E+00  0.00000000E+00  0.00000000E+00
  0.00000000E+00  0.00000000E+00  0.00000000E+00
  0.00000000E+00  0.00000000E+00  0.00000000E+00
  0.00000000E+00  0.00000000E+00  0.00000000E+00
  0.00000000E+00  0.00000000E+00  0.00000000E+00
  0.00000000E+00  0.00000000E+00  0.00000000E+00
  0.00000000E+00  0.00000000E+00  0.00000000E+00
  0.00000000E+00  0.00000000E+00  0.00000000E+00
  0.00000000E+00  0.00000000E+00  0.00000000E+00
  0.00000000E+00  0.00000000E+00  0.00000000E+00
  0.00000000E+00  0.00000000E+00  0.00000000E+00
  0.00000000E+00  0.00000000E+00  0.00000000E+00
  0.00000000E+00  0.00000000E+00  0.00000000E+00
  0.00000000E+00  0.00000000E+00  0.00000000E+00
  0.00000000E+00  0.00000000E+00  0.00000000E+00
  0.00000000E+00  0.00000000E+00  0.00000000E+00
  0.00000000E+00  0.00000000E+00  0.00000000E+00
  0.00000000E+00  0.00000000E+00  0.00000000E+00
  0.00000000E+00  0.00000000E+00  0.00000000E+00
  0.00000000E+00  0.00000000E+00  0.00000000E+00
  0.00000000E+00  0.00000000E+00  0.00000000E+00
  0.00000000E+00  0.00000000E+00  0.00000000E+00
  0.00000000E+00  0.00000000E+00  0.00000000E+00
  0.00000000E+00  0.00000000E+00  0.00000000E+00
  0.00000000E+00  0.00000000E+00  0.00000000E+00
  0.00000000E+00  0.00000000E+00  0.00000000E+00
  0.00000000E+00  0.00000000E+00  0.00000000E+00
  0.00000000E+00  0.00000000E+00  0.00000000E+00
  0.00000000E+00  0.00000000E+00  0.00000000E+00
  0.00000000E+00  0.00000000E+00  0.00000000E+00
  0.00000000E+00  0.00000000E+00  0.00000000E+00
  0.00000000E+00  0.00000000E+00  0.00000000E+00
  0.00000000E+00  0.00000000E+00  0.00000000E+00
  0.00000000E+00  0.00000000E+00  0.00000000E+00
  0.00000000E+00  0.00000000E+00  0.00000000E+00
  0.00000000E+00  0.00000000E+00  0.00000000E+00
  0.00000000E+00  0.00000000E+00  0.00000000E+00
  0.00000000E+00  0.00000000E+00  0.00000000E+00
  0.00000000E+00  0.00000000E+00  0.00000000E+00
  0.00000000E+00  0.00000000E+00  0.00000000E+00
  0.00000000E+00  0.00000000E+00  0.00000000E+00
  0.00000000E+00  0.00000000E+00  0.00000000E+00
  0.00000000E+00  0.00000000E+00  0.00000000E+00
  0.00000000E+00  0.00000000E+00  0.00000000E+00
  0.00000000E+00  0.00000000E+00  0.00000000E+00
  0.00000000E+00  0.00000000E+00  0.00000000E+00
  0.00000000E+00  0.00000000E+00  0.00000000E+00
  0.00000000E+00  0.00000000E+00  0.00000000E+00
  0.00000000E+00  0.00000000E+00  0.00000000E+00
  0.00000000E+00  0.00000000E+00  0.00000000E+00
  0.00000000E+00  0.00000000E+00  0.00000000E+00
  0.00000000E+00  0.00000000E+00  0.00000000E+00
  0.00000000E+00  0.00000000E+00  0.00000000E+00
  0.00000000E+00  0.00000000E+00  0.00000000E+00
  0.00000000E+00  0.00000000E+00  0.00000000E+00
  0.00000000E+00  0.00000000E+00  0.00000000E+00
  0.00000000E+00  0.00000000E+00  0.00000000E+00
  0.00000000E+00  0.00000000E+00  0.00000000E+00
  0.00000000E+00  0.00000000E+00  0.00000000E+00
  0.00000000E+00  0.00000000E+00  0.00000000E+00
  0.00000000E+00  0.00000000E+00  0.00000000E+00
  0.00000000E+00  0.00000000E+00  0.00000000E+00
  0.00000000E+00  0.00000000E+00  0.00000000E+00
  0.00000000E+00  0.00000000E+00  0.00000000E+00
  0.00000000E+00  0.00000000E+00  0.00000000E+00
