Na   Ta   Cl                            
   1.00000000000000     
    12.8086700406632001    0.0000004227264436   -0.0315492974735766
     0.0000004651105324   13.6960863482870003   -0.0000019106395650
    -0.3327533513840470   -0.0000026420200669   18.8435734257652996
   Na   Ta   Cl
    17    16    96
Direct
  0.3744951564694814  0.1104839534839157  0.4955553859338475
  0.3939844839047685  0.0939626712632970  0.7504995877231883
  0.1079770197648294  0.3486272509874903  0.7608978173716552
  0.0996841937394716  0.4058052762622499  0.2506676247488968
  0.3904269667659334  0.1583087849393176  0.2411654686469649
  0.8953879210173672  0.0949273152334094  0.7595581974813074
  0.6027399439369679  0.3490994659593725  0.7519284021644862
  0.6090311277259457  0.4032714600987397  0.2481444336113338
  0.8957394016205120  0.1541314815047069  0.2482975005989741
  0.3964553788582814  0.5946758489644175  0.7465094255777361
  0.1059936583983696  0.8379970256299477  0.7592147567528623
  0.0985235977498830  0.9060450356771144  0.2510730563049410
  0.3911147386565090  0.6608492203941635  0.2404106671609982
  0.8940514544948708  0.5923537470814415  0.7473425622690975
  0.6056619985107873  0.8406817825869948  0.7558373924531743
  0.6091277481135776  0.9077765230472241  0.2535642190029729
  0.8949895347507723  0.6548259137013618  0.2478526714062777
  0.1203087390637579  0.1377689779668719  0.6219949841156081
  0.3732752902941447  0.3917606836327422  0.8849138222819409
  0.3695382346491758  0.3674468634922153  0.3787314737501244
  0.1269100617022617  0.1082030699426574  0.1143527032040600
  0.6386748782117231  0.1397878250240133  0.6202771964902042
  0.8695767349734495  0.3929919125680228  0.8881431179278421
  0.8719315493989922  0.3581017103646613  0.3851709288043457
  0.6284314757720729  0.1076763440414887  0.1149974950421781
  0.1278064617818271  0.6377904507282725  0.6165387599368545
  0.3722059188997758  0.8903432825642744  0.8863838354574222
  0.3711712123090258  0.8599976595265512  0.3860408373748968
  0.1280055945835382  0.6094177688905900  0.1153616847365931
  0.6289277080580632  0.6409527438105029  0.6147359846738077
  0.8704440987174169  0.8893986729292405  0.8878215221138134
  0.8736915957052823  0.8568727547880447  0.3860310811717509
  0.6286233513402725  0.6089133081779591  0.1161035860601054
  0.1855660473720505  0.1567945788242115  0.7449167412021933
  0.3135655972803347  0.4055676167034036  0.7588613605910639
  0.3110788959547623  0.3528385376878245  0.2546766311559527
  0.1872389399045428  0.0929202470998667  0.2401492351673880
  0.2705336514009828  0.0365809267415558  0.6040558301010207
  0.2241820608921620  0.3004353049425607  0.9079940998776137
  0.2213023572911485  0.4556860915962154  0.4060265555912009
  0.2770482941872381  0.1981735444607550  0.0914291601452518
  0.0395003597640329  0.4907569200584484  0.6562260885080048
  0.4634924785904211  0.2456455805970855  0.8441632824915092
  0.4578851038019480  0.0104012433580552  0.3482785815876629
  0.0382866908177625  0.2546942056492629  0.1540032563469114
  0.0550993936575842  0.1162490927550789  0.5084063088305247
  0.4460665314508880  0.3722688134031549  0.9962760387220796
  0.4371202947645344  0.3693165712643806  0.4934387061458373
  0.0549481995799419  0.1267805891627281  0.0027017969104993
  0.4769220345137468  0.2255489836935552  0.6488691550439083
  0.0212390811045886  0.4851597409251540  0.8487862640507882
  0.0249199582821352  0.2683518791906429  0.3458282274068158
  0.4763354885151237  0.0166962840913199  0.1557181955292994
  0.2123770640228984  0.2781977919950399  0.5906584723017357
  0.2940390436671470  0.0401385519373600  0.9099896767561049
  0.2774724273365231  0.2170106201133478  0.3966865603426339
  0.2075035328692941  0.4606919910965796  0.0909927248940150
  0.6874295478029335  0.1560498436325246  0.7449238336408890
  0.8095598133038693  0.4055329969991891  0.7621246605688363
  0.8129963490177528  0.3435441000195188  0.2594200242897650
  0.6888619817805161  0.0955776881448249  0.2409204610685823
  0.7872352329561054  0.0498220586538241  0.5979751750002789
  0.7220239556619642  0.3004353654750423  0.9111859478383466
  0.7212209798309743  0.4461370263328252  0.4090348507920277
  0.7769558120530674  0.1982838767897494  0.0910108369251910
  0.5378222200116990  0.4940195442552345  0.6523144293311257
  0.9621890916080027  0.2474081995750324  0.8485179708832453
  0.9624606847671078  0.0043608051389666  0.3477737867083813
  0.5379442174528180  0.2546099997933290  0.1530826558128502
  0.5817927890404497  0.1239023857688304  0.5009972081279186
  0.9432890085833929  0.3747955224547172  0.9993484080307624
  0.9444899497795328  0.3747120425653953  0.4972411507493489
  0.5548169026640485  0.1240053304030416  0.0035099533799104
  0.9740943723550266  0.2326920775256775  0.6574216266065649
  0.5249652834638342  0.4836787330527525  0.8462447936408618
  0.5187251916075256  0.2697182914208889  0.3430968214696267
  0.9738130737053771  0.0183719652581720  0.1535862499537471
  0.7139597809774116  0.2906639013804670  0.5974222259717851
  0.7934635317744637  0.0403964127354783  0.9107727154148562
  0.7941360238407534  0.2078113408889520  0.4079497094205795
  0.7069637306434564  0.4591950410346093  0.0926081385777572
  0.1898826950863866  0.6521260543203310  0.7416853778432791
  0.3101947509639083  0.9047494161609206  0.7611506279289129
  0.3072429346670362  0.8479895302752216  0.2629341751805852
  0.1879814522211048  0.5943718857761973  0.2412290597730683
  0.2766300817149467  0.5473717312578777  0.5915120422007577
  0.2226486439592509  0.8008553339942954  0.9107723831940341
  0.2238297905986697  0.9535432303864375  0.4139410120934347
  0.2781045688049356  0.7000595216241405  0.0931197899117434
  0.0333274051001918  0.9924715334098356  0.6612607496157795
  0.4603704526866350  0.7435839086841572  0.8468480710280449
  0.4622323043939053  0.5105161579364250  0.3462160566399096
  0.0382672317472240  0.7553970122317649  0.1548124458540541
  0.0529108806449931  0.6204483977090386  0.5053645850609007
  0.4463130670962406  0.8729885437701215  0.9975832696009469
  0.4465217510499961  0.8822626555387122  0.4980743254612321
  0.0565860022418090  0.6285179393921787  0.0035968148677075
  0.4768056245746792  0.7323432120763518  0.6540861376349834
  0.0252088495751206  0.9783252539941938  0.8495100399962748
  0.0266740597302405  0.7674071288288414  0.3469090538064530
  0.4754739402754915  0.5184389443494406  0.1554867838185649
  0.2077522422528729  0.7863531587527812  0.5920760080419705
  0.2921319417956075  0.5395055492462791  0.9089428565500891
  0.2918073915110022  0.7134538666892288  0.4134449412526184
  0.2062189565690288  0.9590404419344746  0.0908500615861595
  0.6882452618480566  0.6535902385016218  0.7403994931743548
  0.8101765079176735  0.9060680082896979  0.7621603902624967
  0.8137686280375621  0.8435908569564600  0.2603255448669706
  0.6887066039074071  0.5938206526396813  0.2417212871141473
  0.7777178627726091  0.5500726641864810  0.5911363771878516
  0.7197256410516026  0.8015100320355373  0.9112621925512165
  0.7235040716935018  0.9466564150912098  0.4091819274596227
  0.7780330551587855  0.6981389000329166  0.0920166362623267
  0.5442070998682991  0.9940960788142769  0.6523960111357701
  0.9574364241367542  0.7425284088217762  0.8481026238727463
  0.9601502295004917  0.5051939456344663  0.3468717338753019
  0.5405991903715810  0.7563407433176498  0.1557671544553473
  0.5557944865899507  0.6240052635180405  0.5028230839246748
  0.9422778982600087  0.8713833250640183  0.9995741837386903
  0.9451648544409711  0.8741053509768018  0.4982656587395016
  0.5544947916713374  0.6268001216570274  0.0049056380149901
  0.9765675121111235  0.7294718075322593  0.6567110332477528
  0.5245628483051054  0.9807754905833816  0.8452896711670100
  0.5226640380020842  0.7717694736010750  0.3466226011227180
  0.9751531651366734  0.5188330161557666  0.1540288877901086
  0.7095504165108119  0.7893830294209437  0.5912917498728888
  0.7885736181331587  0.5408291006796595  0.9115640410694170
  0.7937213842006873  0.7078662575436182  0.4089664107701856
  0.7081371094716288  0.9585872016285032  0.0924142331235797
 
             NaN             NaN             NaN
             NaN             NaN             NaN
             NaN             NaN             NaN
             NaN             NaN             NaN
             NaN             NaN             NaN
             NaN             NaN             NaN
             NaN             NaN             NaN
             NaN             NaN             NaN
             NaN             NaN             NaN
             NaN             NaN             NaN
             NaN             NaN             NaN
             NaN             NaN             NaN
             NaN             NaN             NaN
             NaN             NaN             NaN
             NaN             NaN             NaN
             NaN             NaN             NaN
             NaN             NaN             NaN
             NaN             NaN             NaN
             NaN             NaN             NaN
             NaN             NaN             NaN
             NaN             NaN             NaN
             NaN             NaN             NaN
             NaN             NaN             NaN
             NaN             NaN             NaN
             NaN             NaN             NaN
             NaN             NaN             NaN
             NaN             NaN             NaN
             NaN             NaN             NaN
             NaN             NaN             NaN
             NaN             NaN             NaN
             NaN             NaN             NaN
             NaN             NaN             NaN
             NaN             NaN             NaN
             NaN             NaN             NaN
             NaN             NaN             NaN
             NaN             NaN             NaN
             NaN             NaN             NaN
             NaN             NaN             NaN
             NaN             NaN             NaN
             NaN             NaN             NaN
             NaN             NaN             NaN
             NaN             NaN             NaN
             NaN             NaN             NaN
             NaN             NaN             NaN
             NaN             NaN             NaN
             NaN             NaN             NaN
             NaN             NaN             NaN
             NaN             NaN             NaN
             NaN             NaN             NaN
             NaN             NaN             NaN
             NaN             NaN             NaN
             NaN             NaN             NaN
             NaN             NaN             NaN
             NaN             NaN             NaN
             NaN             NaN             NaN
             NaN             NaN             NaN
             NaN             NaN             NaN
             NaN             NaN             NaN
             NaN             NaN             NaN
             NaN             NaN             NaN
             NaN             NaN             NaN
             NaN             NaN             NaN
             NaN             NaN             NaN
             NaN             NaN             NaN
             NaN             NaN             NaN
             NaN             NaN             NaN
             NaN             NaN             NaN
             NaN             NaN             NaN
             NaN             NaN             NaN
             NaN             NaN             NaN
             NaN             NaN             NaN
             NaN             NaN             NaN
             NaN             NaN             NaN
             NaN             NaN             NaN
             NaN             NaN             NaN
             NaN             NaN             NaN
             NaN             NaN             NaN
             NaN             NaN             NaN
             NaN             NaN             NaN
             NaN             NaN             NaN
             NaN             NaN             NaN
             NaN             NaN             NaN
             NaN             NaN             NaN
             NaN             NaN             NaN
             NaN             NaN             NaN
             NaN             NaN             NaN
             NaN             NaN             NaN
             NaN             NaN             NaN
             NaN             NaN             NaN
             NaN             NaN             NaN
             NaN             NaN             NaN
             NaN             NaN             NaN
             NaN             NaN             NaN
             NaN             NaN             NaN
             NaN             NaN             NaN
             NaN             NaN             NaN
             NaN             NaN             NaN
             NaN             NaN             NaN
             NaN             NaN             NaN
             NaN             NaN             NaN
             NaN             NaN             NaN
             NaN             NaN             NaN
             NaN             NaN             NaN
             NaN             NaN             NaN
             NaN             NaN             NaN
             NaN             NaN             NaN
             NaN             NaN             NaN
             NaN             NaN             NaN
             NaN             NaN             NaN
             NaN             NaN             NaN
             NaN             NaN             NaN
             NaN             NaN             NaN
             NaN             NaN             NaN
             NaN             NaN             NaN
             NaN             NaN             NaN
             NaN             NaN             NaN
             NaN             NaN             NaN
             NaN             NaN             NaN
             NaN             NaN             NaN
             NaN             NaN             NaN
             NaN             NaN             NaN
             NaN             NaN             NaN
             NaN             NaN             NaN
             NaN             NaN             NaN
             NaN             NaN             NaN
             NaN             NaN             NaN
             NaN             NaN             NaN
             NaN             NaN             NaN
             NaN             NaN             NaN
