supercell of natacl6_p21c.cif           
   1.00000000000000     
    12.8086700406632197    0.0000004227264436   -0.0315492974735766
     0.0000004651105324   13.6960863482870359   -0.0000019106395650
    -0.3327533513840475   -0.0000026420200669   18.8435734257652570
   Na   Ta   Cl
    17    15    96
Direct
  0.4129570419088182  0.0843172130262673  0.7601058469531452
  0.0840539692825288  0.3428379601602103  0.7439736927692806
  0.1161619590713840  0.4026573702674483  0.2468038397957386
  0.4003138941696207  0.1539389077109448  0.2471345987299856
  0.8818675342193316  0.1050068825791968  0.7600981592766942
  0.6081516190652820  0.3433856852065560  0.7597061139932393
  0.6064717963927109  0.4049964949934548  0.2444981132001089
  0.8974741603447711  0.1534552777793152  0.2469205785037047
  0.3944774630435504  0.5822848622772554  0.7436235159700360
  0.1173596382804192  0.8325736721133481  0.7727979286358106
  0.1130582748163178  0.9061380414270559  0.2574378592484479
  0.3980309110681688  0.6541064164067620  0.2448994912653930
  0.8951332128449394  0.5953869473348306  0.7485255835020226
  0.6074904023981418  0.8364653857990803  0.7522079491653244
  0.6065323537065552  0.9050420768813225  0.2486883493377618
  0.8949558829090520  0.6613070819940390  0.2434025278390735
  0.8923058246237119  0.1893109952602288  0.5418687473650081
  0.3639189387931339  0.3850504016005516  0.8868214312281069
  0.3820634975787911  0.3596294977994319  0.3793416157745710
  0.1304192886539894  0.1064183720231284  0.1159107974230764
  0.6120675753110945  0.1348255004703631  0.6159789114582424
  0.8709764064780288  0.3942396242391482  0.8887955605838798
  0.8780445466610658  0.3654321607427065  0.3810376676465523
  0.6316711710111349  0.1072069485067217  0.1138603337686632
  0.1306429199862578  0.6471026931827666  0.6172415153416466
  0.3802078900156545  0.8807268065100260  0.8885121100596862
  0.3806901470487531  0.8546724769261971  0.3830035433560042
  0.1296214136513072  0.6099585093420217  0.1168195305996065
  0.6299885781059160  0.6349530317668197  0.6165701559771648
  0.8708829235358593  0.8903430129787679  0.8871576532910979
  0.8727894798780937  0.8589015744396207  0.3874793094557774
  0.6318671811450045  0.6076746474054957  0.1140652294713647
  0.1888545815052183  0.1171043887505832  0.7412375295171216
  0.2991588021793632  0.3951080005946039  0.7615789486525628
  0.3233762047133553  0.3474819050988813  0.2537248037121955
  0.1934959765337254  0.0945435566757951  0.2409502256306766
  0.1812767770593666  0.1955023167301988  0.5540974784595676
  0.2197562854668007  0.2882643552744284  0.9102148032848945
  0.2312923189537130  0.4472359610969576  0.4044540712668265
  0.2776389592273389  0.1980421215585011  0.0904105405405460
  0.0355993076263275  0.5029868292217827  0.6531765821424855
  0.4601698409874757  0.2413255658871805  0.8469857043868103
  0.4691477108079525  0.0022797861613526  0.3449278957397937
  0.0397670602363291  0.2531990798194599  0.1548548015841149
  0.0703737064142800  0.0961319111584160  0.4935287966868884
  0.4395541925413795  0.3693716596931722  0.9976012372273217
  0.4526816452057005  0.3736727243684754  0.4922449602447116
  0.0538602774317454  0.1226430454470346  0.0052674501415382
  0.4605896765351929  0.2241536133969362  0.6528161951660039
  0.0237474198785321  0.4818558190769551  0.8467503835159462
  0.0286223834637198  0.2711959887203719  0.3447208048240569
  0.4782776875209649  0.0173256430296505  0.1530792221254558
  0.2187123760555210  0.3381369817860929  0.5875753186900781
  0.3015511718344399  0.0323711278936969  0.9087849954690981
  0.3032833969131516  0.2081583947861674  0.3979396022160273
  0.2066513696320129  0.4595888117421936  0.0924050638061260
  0.6710632497408753  0.1495872157063971  0.7415035095489912
  0.8112863719722085  0.4052848762133650  0.7629568651674958
  0.8150216242562607  0.3461438719474259  0.2590753433208093
  0.6909311499820490  0.0948817683164620  0.2400302096316764
  0.7643585164532567  0.0416399243102816  0.5948986727657015
  0.7200900610494827  0.3044799331220673  0.9115426864470066
  0.7294196888812365  0.4521896203212918  0.4091786588793482
  0.7811275898711898  0.1970416393245458  0.0904773821530185
  0.5413976504408211  0.4865938337008657  0.6538877533092489
  0.9612699759532433  0.2462249198285491  0.8551965629517184
  0.9631901668770553  0.0061894599120222  0.3492295395600564
  0.5410461920550276  0.2538464972773724  0.1507271759792275
  0.5488981722987063  0.1197214163174607  0.5018519819136813
  0.9415475799528110  0.3805607067975671  0.0013884878388666
  0.9512567298246069  0.3781669255902997  0.4956069558912901
  0.5601701495433247  0.1225210594222972  0.0016182127805990
  0.9649149053332664  0.2242154674331900  0.6677673151654844
  0.5139602499704381  0.4783235259262355  0.8454343392700281
  0.5358120441631797  0.2696821094417459  0.3415072693139223
  0.9799793938276053  0.0147649990058980  0.1579246801890903
  0.6980978782691736  0.2829416031291672  0.5926677424893967
  0.7934238489052916  0.0410602532450426  0.9098308917080260
  0.7965952136567651  0.2133999993914202  0.4078108557564519
  0.7106273123605504  0.4572606582345458  0.0926375651194959
  0.1938802380176909  0.6519039933028594  0.7424607154606093
  0.3235429218458421  0.8943564423984114  0.7623412277390358
  0.3187116136404455  0.8423084930861862  0.2578211060917610
  0.1917284086371964  0.5947021082670290  0.2417935668431284
  0.2801322512035256  0.5540612362883479  0.5932265475427982
  0.2268435259472170  0.7953927783134844  0.9123867841068645
  0.2310502307486146  0.9450123005988544  0.4067399921998316
  0.2798354564042569  0.6978666911357507  0.0918376096574534
  0.1331290925280015  0.0187032704262933  0.6722662226071492
  0.4649175043729414  0.7333017787047282  0.8501085931001171
  0.4707765652124607  0.5067668393436762  0.3434063980407984
  0.0429471109591972  0.7575854820889845  0.1564738683112168
  0.0601629090425604  0.6298819438989725  0.5049857626847967
  0.4504203265592750  0.8662634240096807  0.0006542279838939
  0.4525056826158789  0.8714124389414764  0.4952678749737416
  0.0546621766631148  0.6285190661329736  0.0058220573138854
  0.4770767039831227  0.7247881972481025  0.6558595927207236
  0.0240036028764905  0.9802359453797820  0.8458763746913363
  0.0248854848051892  0.7687520298782005  0.3480370929566945
  0.4776239920491108  0.5182331328146148  0.1519573756540353
  0.2154518531457441  0.7937870481058624  0.5934181334695197
  0.2822182066594507  0.5320589853957927  0.9104582682299309
  0.3002217116414911  0.7058681834702583  0.4067975822186938
  0.2107737528939424  0.9581280844446027  0.0918677542897939
  0.6882482889133783  0.6484545920558631  0.7426246863521442
  0.8109753786245975  0.9059283080346106  0.7612757730321462
  0.8124170665920118  0.8468090654430753  0.2627304986946299
  0.6917162738342455  0.5936249232490027  0.2400018271672053
  0.7803093838387412  0.5462711931675983  0.5929534882374767
  0.7224733699604897  0.8006521751419911  0.9118010807301786
  0.7249098492966937  0.9504001717949606  0.4120082006673798
  0.7816455056338540  0.6975572841446152  0.0905796416961522
  0.5255714261349667  0.9868602849815318  0.6518298664101678
  0.9587872030250963  0.7421676599272828  0.8493876460455922
  0.9673137737825854  0.5096013491465072  0.3460686863995264
  0.5426461576728414  0.7541119734826438  0.1523741503535518
  0.5583596259627797  0.6194485711252682  0.5044549899206885
  0.9455420817102009  0.8751067295627593  0.9982809776036845
  0.9457688458619486  0.8775272736154065  0.5000756717408521
  0.5608413642504857  0.6228811408201764  0.0017569287139452
  0.9845866450907579  0.7424242991761076  0.6594858809432083
  0.5349664624054853  0.9699377272419909  0.8500369605043474
  0.5324290688471436  0.7649094633097846  0.3432329641868535
  0.9774757199961144  0.5194104779022268  0.1572876033223380
  0.7097661046434638  0.7848795479355317  0.5947431811007533
  0.7916421699839304  0.5440686537518147  0.9103943015619294
  0.7937423285687046  0.7102461753667910  0.4121158198766182
  0.7114033693931034  0.9573188815067866  0.0925402345110840
 
  0.00000000E+00  0.00000000E+00  0.00000000E+00
  0.00000000E+00  0.00000000E+00  0.00000000E+00
  0.00000000E+00  0.00000000E+00  0.00000000E+00
  0.00000000E+00  0.00000000E+00  0.00000000E+00
  0.00000000E+00  0.00000000E+00  0.00000000E+00
  0.00000000E+00  0.00000000E+00  0.00000000E+00
  0.00000000E+00  0.00000000E+00  0.00000000E+00
  0.00000000E+00  0.00000000E+00  0.00000000E+00
  0.00000000E+00  0.00000000E+00  0.00000000E+00
  0.00000000E+00  0.00000000E+00  0.00000000E+00
  0.00000000E+00  0.00000000E+00  0.00000000E+00
  0.00000000E+00  0.00000000E+00  0.00000000E+00
  0.00000000E+00  0.00000000E+00  0.00000000E+00
  0.00000000E+00  0.00000000E+00  0.00000000E+00
  0.00000000E+00  0.00000000E+00  0.00000000E+00
  0.00000000E+00  0.00000000E+00  0.00000000E+00
  0.00000000E+00  0.00000000E+00  0.00000000E+00
  0.00000000E+00  0.00000000E+00  0.00000000E+00
  0.00000000E+00  0.00000000E+00  0.00000000E+00
  0.00000000E+00  0.00000000E+00  0.00000000E+00
  0.00000000E+00  0.00000000E+00  0.00000000E+00
  0.00000000E+00  0.00000000E+00  0.00000000E+00
  0.00000000E+00  0.00000000E+00  0.00000000E+00
  0.00000000E+00  0.00000000E+00  0.00000000E+00
  0.00000000E+00  0.00000000E+00  0.00000000E+00
  0.00000000E+00  0.00000000E+00  0.00000000E+00
  0.00000000E+00  0.00000000E+00  0.00000000E+00
  0.00000000E+00  0.00000000E+00  0.00000000E+00
  0.00000000E+00  0.00000000E+00  0.00000000E+00
  0.00000000E+00  0.00000000E+00  0.00000000E+00
  0.00000000E+00  0.00000000E+00  0.00000000E+00
  0.00000000E+00  0.00000000E+00  0.00000000E+00
  0.00000000E+00  0.00000000E+00  0.00000000E+00
  0.00000000E+00  0.00000000E+00  0.00000000E+00
  0.00000000E+00  0.00000000E+00  0.00000000E+00
  0.00000000E+00  0.00000000E+00  0.00000000E+00
  0.00000000E+00  0.00000000E+00  0.00000000E+00
  0.00000000E+00  0.00000000E+00  0.00000000E+00
  0.00000000E+00  0.00000000E+00  0.00000000E+00
  0.00000000E+00  0.00000000E+00  0.00000000E+00
  0.00000000E+00  0.00000000E+00  0.00000000E+00
  0.00000000E+00  0.00000000E+00  0.00000000E+00
  0.00000000E+00  0.00000000E+00  0.00000000E+00
  0.00000000E+00  0.00000000E+00  0.00000000E+00
  0.00000000E+00  0.00000000E+00  0.00000000E+00
  0.00000000E+00  0.00000000E+00  0.00000000E+00
  0.00000000E+00  0.00000000E+00  0.00000000E+00
  0.00000000E+00  0.00000000E+00  0.00000000E+00
  0.00000000E+00  0.00000000E+00  0.00000000E+00
  0.00000000E+00  0.00000000E+00  0.00000000E+00
  0.00000000E+00  0.00000000E+00  0.00000000E+00
  0.00000000E+00  0.00000000E+00  0.00000000E+00
  0.00000000E+00  0.00000000E+00  0.00000000E+00
  0.00000000E+00  0.00000000E+00  0.00000000E+00
  0.00000000E+00  0.00000000E+00  0.00000000E+00
  0.00000000E+00  0.00000000E+00  0.00000000E+00
  0.00000000E+00  0.00000000E+00  0.00000000E+00
  0.00000000E+00  0.00000000E+00  0.00000000E+00
  0.00000000E+00  0.00000000E+00  0.00000000E+00
  0.00000000E+00  0.00000000E+00  0.00000000E+00
  0.00000000E+00  0.00000000E+00  0.00000000E+00
  0.00000000E+00  0.00000000E+00  0.00000000E+00
  0.00000000E+00  0.00000000E+00  0.00000000E+00
  0.00000000E+00  0.00000000E+00  0.00000000E+00
  0.00000000E+00  0.00000000E+00  0.00000000E+00
  0.00000000E+00  0.00000000E+00  0.00000000E+00
  0.00000000E+00  0.00000000E+00  0.00000000E+00
  0.00000000E+00  0.00000000E+00  0.00000000E+00
  0.00000000E+00  0.00000000E+00  0.00000000E+00
  0.00000000E+00  0.00000000E+00  0.00000000E+00
  0.00000000E+00  0.00000000E+00  0.00000000E+00
  0.00000000E+00  0.00000000E+00  0.00000000E+00
  0.00000000E+00  0.00000000E+00  0.00000000E+00
  0.00000000E+00  0.00000000E+00  0.00000000E+00
  0.00000000E+00  0.00000000E+00  0.00000000E+00
  0.00000000E+00  0.00000000E+00  0.00000000E+00
  0.00000000E+00  0.00000000E+00  0.00000000E+00
  0.00000000E+00  0.00000000E+00  0.00000000E+00
  0.00000000E+00  0.00000000E+00  0.00000000E+00
  0.00000000E+00  0.00000000E+00  0.00000000E+00
  0.00000000E+00  0.00000000E+00  0.00000000E+00
  0.00000000E+00  0.00000000E+00  0.00000000E+00
  0.00000000E+00  0.00000000E+00  0.00000000E+00
  0.00000000E+00  0.00000000E+00  0.00000000E+00
  0.00000000E+00  0.00000000E+00  0.00000000E+00
  0.00000000E+00  0.00000000E+00  0.00000000E+00
  0.00000000E+00  0.00000000E+00  0.00000000E+00
  0.00000000E+00  0.00000000E+00  0.00000000E+00
  0.00000000E+00  0.00000000E+00  0.00000000E+00
  0.00000000E+00  0.00000000E+00  0.00000000E+00
  0.00000000E+00  0.00000000E+00  0.00000000E+00
  0.00000000E+00  0.00000000E+00  0.00000000E+00
  0.00000000E+00  0.00000000E+00  0.00000000E+00
  0.00000000E+00  0.00000000E+00  0.00000000E+00
  0.00000000E+00  0.00000000E+00  0.00000000E+00
  0.00000000E+00  0.00000000E+00  0.00000000E+00
  0.00000000E+00  0.00000000E+00  0.00000000E+00
  0.00000000E+00  0.00000000E+00  0.00000000E+00
  0.00000000E+00  0.00000000E+00  0.00000000E+00
  0.00000000E+00  0.00000000E+00  0.00000000E+00
  0.00000000E+00  0.00000000E+00  0.00000000E+00
  0.00000000E+00  0.00000000E+00  0.00000000E+00
  0.00000000E+00  0.00000000E+00  0.00000000E+00
  0.00000000E+00  0.00000000E+00  0.00000000E+00
  0.00000000E+00  0.00000000E+00  0.00000000E+00
  0.00000000E+00  0.00000000E+00  0.00000000E+00
  0.00000000E+00  0.00000000E+00  0.00000000E+00
  0.00000000E+00  0.00000000E+00  0.00000000E+00
  0.00000000E+00  0.00000000E+00  0.00000000E+00
  0.00000000E+00  0.00000000E+00  0.00000000E+00
  0.00000000E+00  0.00000000E+00  0.00000000E+00
  0.00000000E+00  0.00000000E+00  0.00000000E+00
  0.00000000E+00  0.00000000E+00  0.00000000E+00
  0.00000000E+00  0.00000000E+00  0.00000000E+00
  0.00000000E+00  0.00000000E+00  0.00000000E+00
  0.00000000E+00  0.00000000E+00  0.00000000E+00
  0.00000000E+00  0.00000000E+00  0.00000000E+00
  0.00000000E+00  0.00000000E+00  0.00000000E+00
  0.00000000E+00  0.00000000E+00  0.00000000E+00
  0.00000000E+00  0.00000000E+00  0.00000000E+00
  0.00000000E+00  0.00000000E+00  0.00000000E+00
  0.00000000E+00  0.00000000E+00  0.00000000E+00
  0.00000000E+00  0.00000000E+00  0.00000000E+00
  0.00000000E+00  0.00000000E+00  0.00000000E+00
  0.00000000E+00  0.00000000E+00  0.00000000E+00
  0.00000000E+00  0.00000000E+00  0.00000000E+00
  0.00000000E+00  0.00000000E+00  0.00000000E+00
  0.00000000E+00  0.00000000E+00  0.00000000E+00
