supercell of natacl6_p21c.cif           
   1.00000000000000     
    12.8086700406632197    0.0000004227264436   -0.0315492974735766
     0.0000004651105324   13.6960863482870359   -0.0000019106395650
    -0.3327533513840475   -0.0000026420200669   18.8435734257652570
   Na   Ta   Cl
    15    16    95
Direct
  0.1074364550992399  0.3432512964259544  0.7509625835139957
  0.1044144926137704  0.4045120644187179  0.2525055037593091
  0.3953157191048291  0.1547190949324673  0.2467292719265686
  0.9078139082646359  0.0955611191419479  0.7542348966847996
  0.6109545464847344  0.3503790983397508  0.7610546589231006
  0.6046221244336820  0.4044675362770889  0.2527705763568875
  0.8944155269923115  0.1549329726562618  0.2462270976334509
  0.3927643069942377  0.6003049246392962  0.7524403713484489
  0.1135573303341531  0.8459813216254588  0.7557425479603808
  0.1053266276082709  0.9051177991894548  0.2521356036186546
  0.3952134165106358  0.6549304895039825  0.2468041182067893
  0.8976597771898867  0.5947361287076589  0.7457778722641990
  0.6051638433391346  0.8392554387684896  0.7615398223781682
  0.6042809877727677  0.9048768822114468  0.2520831492982154
  0.8941717251357488  0.6541693417996584  0.2456039032239445
  0.1308611889262821  0.1400467707470625  0.6179523670438130
  0.3721099528887351  0.3907298153822225  0.8831155321728659
  0.3708043358629638  0.3578023298917898  0.3854494093905743
  0.1285807294896131  0.1079340498433439  0.1150223178885597
  0.6464295844090842  0.1224340262005441  0.6103948047992134
  0.8734175241447844  0.3929887495944513  0.8853731951478991
  0.8714803250961225  0.3583072572665245  0.3855522096121220
  0.6276600499709986  0.1079197481972258  0.1143787154683409
  0.1275517999102718  0.6422226098604682  0.6148602575385098
  0.3723154240548965  0.8991635617001563  0.8813355516745460
  0.3716115470543997  0.8581872113301543  0.3850062871810209
  0.1289229364178652  0.6084055967221857  0.1145018020088671
  0.6271920624676781  0.6408439335961091  0.6159826187527671
  0.8712531130775787  0.8920489590191920  0.8852119812258721
  0.8726946763808670  0.8569076685286987  0.3837511304873900
  0.6276160713871519  0.6080707928314268  0.1149736259882204
  0.1913312873368014  0.1533588282201350  0.7391794267730916
  0.3095845418807670  0.4122108200676635  0.7582640946577968
  0.3106901045606989  0.3431492713710682  0.2601884678725668
  0.1893126119195401  0.0933266613316022  0.2406287637116833
  0.2763865898373723  0.0508285620661582  0.5872734299612858
  0.2229710048896507  0.3001874843218246  0.9067023824521101
  0.2221460593098712  0.4486521582102370  0.4092463137623099
  0.2773288654698263  0.1987889636891538  0.0914711542896498
  0.0383967113362331  0.4952569488999359  0.6538974109352935
  0.4600205793317542  0.2496229082695649  0.8376168714734149
  0.4613684786488292  0.0050502336911720  0.3464827144619065
  0.0388915899506088  0.2544523894084634  0.1546484044509313
  0.0513752920250283  0.1244385334579690  0.5065499270003002
  0.4445619146777702  0.3699056376549947  0.9948651349046145
  0.4429414787636787  0.3744174529357096  0.4979650787529408
  0.0548541014924027  0.1264426489255897  0.0037777081860284
  0.0248230567812371  0.4828396308668701  0.8458105522736119
  0.0233515400796733  0.2671547617473706  0.3464891969673189
  0.4755578427474632  0.0171985156147514  0.1539625264562474
  0.2061599242207066  0.2910088148999534  0.5923852797905838
  0.2915208457934213  0.0443340603764142  0.9104025475643311
  0.2912097872170065  0.2088558188663043  0.4092186880303643
  0.2080078532260217  0.4593053863645906  0.0905343282334385
  0.6894030012207679  0.1519218493805354  0.7337391185469073
  0.8143917996868737  0.4056463068097145  0.7588114872607292
  0.8104295838773723  0.3429469971989860  0.2602401716499827
  0.6888051224517682  0.0929066745045830  0.2401542022661616
  0.7921359025895001  0.0460224819239414  0.5774519422109208
  0.7226051595675713  0.3018077702852224  0.9061713342620052
  0.7219771248663918  0.4486653819548820  0.4089029707123899
  0.7772507482121398  0.1984393134097147  0.0913447048503215
  0.5365863412165055  0.4960199806622825  0.6569128359620180
  0.9641087457124016  0.2463570753386151  0.8482947705006012
  0.9610720234625774  0.0042285124876429  0.3456626382108610
  0.5387236053019748  0.2544670422253930  0.1542604075692395
  0.5499350073586911  0.1236251155021932  0.5067632152120893
  0.9422977671044777  0.3747387929339681  0.9979166658500844
  0.9426411023809393  0.3755889979456697  0.4977260546745725
  0.5553949001442149  0.1265869441296985  0.0028692413682450
  0.9732758770839922  0.2302986028484995  0.6561888451826121
  0.5234712416137413  0.4876334826431474  0.8475867435027453
  0.5236678623739124  0.2670648691464024  0.3464507345704746
  0.9760987055538877  0.0170269584321190  0.1545619165380288
  0.6721253581484063  0.2891584101720426  0.5978974162221604
  0.7933562150386066  0.0422565399529802  0.9088244297095471
  0.7909763762822877  0.2090742548828928  0.4096194824220447
  0.7074424452741326  0.4590131169613940  0.0911861765408162
  0.1868996134030070  0.6563766242512656  0.7402408550349193
  0.3157839517473278  0.9119917931239954  0.7578138006227491
  0.3114973188552028  0.8439091159397947  0.2597113041062897
  0.1894417459008366  0.5931235654591802  0.2401874163169708
  0.2766617811168288  0.5519705471434477  0.5909246429233121
  0.2224042623943632  0.8053585170075124  0.9040645265516787
  0.2226431909513948  0.9484942454448699  0.4088881517141871
  0.2776770499676786  0.6989027437460607  0.0911180795514639
  0.0385493693707772  0.9927473870103896  0.6553412792543654
  0.4609804494556613  0.7464735233367463  0.8462968669617581
  0.4607820592790475  0.5040768753523679  0.3468765974085741
  0.0391559836291222  0.7546194948959126  0.1540186557326209
  0.0540358250708834  0.6236961670645087  0.5032026313527993
  0.4418825482022584  0.8747066305784159  0.9946319244970567
  0.4449870434781928  0.8755275310620618  0.4968962759172797
  0.0554759201349668  0.6268060509898916  0.0031054068685350
  0.4773930708045313  0.7339370473258811  0.6556385637105819
  0.0256367065907241  0.9812041542572345  0.8477635152563252
  0.0244040002892874  0.7662432467661233  0.3442154171429763
  0.4756027534287028  0.5168670467757721  0.1545059137308229
  0.2076988593263920  0.7908468164649065  0.5906867105831495
  0.2908928524610630  0.5390600384654007  0.9094409791739935
  0.2924000430132523  0.7091445901868525  0.4090663223363933
  0.2078042613620354  0.9591939336698232  0.0909484952585231
  0.6915411050962774  0.6553796310971691  0.7404173714474140
  0.8094487729406339  0.9102452588550349  0.7595116967685485
  0.8108125711113487  0.8431696282420802  0.2589357589265973
  0.6884571389985297  0.5931851775856813  0.2406872730193612
  0.7752520140413353  0.5489367484261365  0.5912614859772773
  0.7212724152133418  0.8026800549674959  0.9086399262217100
  0.7230428140229392  0.9473120406319282  0.4083620257384339
  0.7774227285909063  0.6981438139044158  0.0915654987261618
  0.5342698029764676  0.0054363091791103  0.6540920113911781
  0.9585387594528427  0.7461727992702762  0.8444637666563253
  0.9607166682378079  0.5044172665064650  0.3463876914811124
  0.5387104286979820  0.7546142122557029  0.1542848674210830
  0.5537693964506758  0.6222213438166904  0.5044704365653487
  0.9423742089309357  0.8730908255108929  0.9971188214788000
  0.9467962714041320  0.8740671465273948  0.4953582060742860
  0.5547609273928700  0.6264849038812415  0.0036321083671425
  0.9757365175140080  0.7335785074991534  0.6540196310539983
  0.5265699927515683  0.9850367880923443  0.8458491189571831
  0.5242040928050287  0.7675626512092535  0.3457145973391818
  0.9764610316835842  0.5171568317344608  0.1542528493108719
  0.7079279780092378  0.7893692823141905  0.5905782798040420
  0.7924501574323131  0.5413388663969130  0.9085146132780153
  0.7925581173829954  0.7084147548126936  0.4082596892369281
  0.7073128634910262  0.9589680395200659  0.0906596406480844
 
  0.00000000E+00  0.00000000E+00  0.00000000E+00
  0.00000000E+00  0.00000000E+00  0.00000000E+00
  0.00000000E+00  0.00000000E+00  0.00000000E+00
  0.00000000E+00  0.00000000E+00  0.00000000E+00
  0.00000000E+00  0.00000000E+00  0.00000000E+00
  0.00000000E+00  0.00000000E+00  0.00000000E+00
  0.00000000E+00  0.00000000E+00  0.00000000E+00
  0.00000000E+00  0.00000000E+00  0.00000000E+00
  0.00000000E+00  0.00000000E+00  0.00000000E+00
  0.00000000E+00  0.00000000E+00  0.00000000E+00
  0.00000000E+00  0.00000000E+00  0.00000000E+00
  0.00000000E+00  0.00000000E+00  0.00000000E+00
  0.00000000E+00  0.00000000E+00  0.00000000E+00
  0.00000000E+00  0.00000000E+00  0.00000000E+00
  0.00000000E+00  0.00000000E+00  0.00000000E+00
  0.00000000E+00  0.00000000E+00  0.00000000E+00
  0.00000000E+00  0.00000000E+00  0.00000000E+00
  0.00000000E+00  0.00000000E+00  0.00000000E+00
  0.00000000E+00  0.00000000E+00  0.00000000E+00
  0.00000000E+00  0.00000000E+00  0.00000000E+00
  0.00000000E+00  0.00000000E+00  0.00000000E+00
  0.00000000E+00  0.00000000E+00  0.00000000E+00
  0.00000000E+00  0.00000000E+00  0.00000000E+00
  0.00000000E+00  0.00000000E+00  0.00000000E+00
  0.00000000E+00  0.00000000E+00  0.00000000E+00
  0.00000000E+00  0.00000000E+00  0.00000000E+00
  0.00000000E+00  0.00000000E+00  0.00000000E+00
  0.00000000E+00  0.00000000E+00  0.00000000E+00
  0.00000000E+00  0.00000000E+00  0.00000000E+00
  0.00000000E+00  0.00000000E+00  0.00000000E+00
  0.00000000E+00  0.00000000E+00  0.00000000E+00
  0.00000000E+00  0.00000000E+00  0.00000000E+00
  0.00000000E+00  0.00000000E+00  0.00000000E+00
  0.00000000E+00  0.00000000E+00  0.00000000E+00
  0.00000000E+00  0.00000000E+00  0.00000000E+00
  0.00000000E+00  0.00000000E+00  0.00000000E+00
  0.00000000E+00  0.00000000E+00  0.00000000E+00
  0.00000000E+00  0.00000000E+00  0.00000000E+00
  0.00000000E+00  0.00000000E+00  0.00000000E+00
  0.00000000E+00  0.00000000E+00  0.00000000E+00
  0.00000000E+00  0.00000000E+00  0.00000000E+00
  0.00000000E+00  0.00000000E+00  0.00000000E+00
  0.00000000E+00  0.00000000E+00  0.00000000E+00
  0.00000000E+00  0.00000000E+00  0.00000000E+00
  0.00000000E+00  0.00000000E+00  0.00000000E+00
  0.00000000E+00  0.00000000E+00  0.00000000E+00
  0.00000000E+00  0.00000000E+00  0.00000000E+00
  0.00000000E+00  0.00000000E+00  0.00000000E+00
  0.00000000E+00  0.00000000E+00  0.00000000E+00
  0.00000000E+00  0.00000000E+00  0.00000000E+00
  0.00000000E+00  0.00000000E+00  0.00000000E+00
  0.00000000E+00  0.00000000E+00  0.00000000E+00
  0.00000000E+00  0.00000000E+00  0.00000000E+00
  0.00000000E+00  0.00000000E+00  0.00000000E+00
  0.00000000E+00  0.00000000E+00  0.00000000E+00
  0.00000000E+00  0.00000000E+00  0.00000000E+00
  0.00000000E+00  0.00000000E+00  0.00000000E+00
  0.00000000E+00  0.00000000E+00  0.00000000E+00
  0.00000000E+00  0.00000000E+00  0.00000000E+00
  0.00000000E+00  0.00000000E+00  0.00000000E+00
  0.00000000E+00  0.00000000E+00  0.00000000E+00
  0.00000000E+00  0.00000000E+00  0.00000000E+00
  0.00000000E+00  0.00000000E+00  0.00000000E+00
  0.00000000E+00  0.00000000E+00  0.00000000E+00
  0.00000000E+00  0.00000000E+00  0.00000000E+00
  0.00000000E+00  0.00000000E+00  0.00000000E+00
  0.00000000E+00  0.00000000E+00  0.00000000E+00
  0.00000000E+00  0.00000000E+00  0.00000000E+00
  0.00000000E+00  0.00000000E+00  0.00000000E+00
  0.00000000E+00  0.00000000E+00  0.00000000E+00
  0.00000000E+00  0.00000000E+00  0.00000000E+00
  0.00000000E+00  0.00000000E+00  0.00000000E+00
  0.00000000E+00  0.00000000E+00  0.00000000E+00
  0.00000000E+00  0.00000000E+00  0.00000000E+00
  0.00000000E+00  0.00000000E+00  0.00000000E+00
  0.00000000E+00  0.00000000E+00  0.00000000E+00
  0.00000000E+00  0.00000000E+00  0.00000000E+00
  0.00000000E+00  0.00000000E+00  0.00000000E+00
  0.00000000E+00  0.00000000E+00  0.00000000E+00
  0.00000000E+00  0.00000000E+00  0.00000000E+00
  0.00000000E+00  0.00000000E+00  0.00000000E+00
  0.00000000E+00  0.00000000E+00  0.00000000E+00
  0.00000000E+00  0.00000000E+00  0.00000000E+00
  0.00000000E+00  0.00000000E+00  0.00000000E+00
  0.00000000E+00  0.00000000E+00  0.00000000E+00
  0.00000000E+00  0.00000000E+00  0.00000000E+00
  0.00000000E+00  0.00000000E+00  0.00000000E+00
  0.00000000E+00  0.00000000E+00  0.00000000E+00
  0.00000000E+00  0.00000000E+00  0.00000000E+00
  0.00000000E+00  0.00000000E+00  0.00000000E+00
  0.00000000E+00  0.00000000E+00  0.00000000E+00
  0.00000000E+00  0.00000000E+00  0.00000000E+00
  0.00000000E+00  0.00000000E+00  0.00000000E+00
  0.00000000E+00  0.00000000E+00  0.00000000E+00
  0.00000000E+00  0.00000000E+00  0.00000000E+00
  0.00000000E+00  0.00000000E+00  0.00000000E+00
  0.00000000E+00  0.00000000E+00  0.00000000E+00
  0.00000000E+00  0.00000000E+00  0.00000000E+00
  0.00000000E+00  0.00000000E+00  0.00000000E+00
  0.00000000E+00  0.00000000E+00  0.00000000E+00
  0.00000000E+00  0.00000000E+00  0.00000000E+00
  0.00000000E+00  0.00000000E+00  0.00000000E+00
  0.00000000E+00  0.00000000E+00  0.00000000E+00
  0.00000000E+00  0.00000000E+00  0.00000000E+00
  0.00000000E+00  0.00000000E+00  0.00000000E+00
  0.00000000E+00  0.00000000E+00  0.00000000E+00
  0.00000000E+00  0.00000000E+00  0.00000000E+00
  0.00000000E+00  0.00000000E+00  0.00000000E+00
  0.00000000E+00  0.00000000E+00  0.00000000E+00
  0.00000000E+00  0.00000000E+00  0.00000000E+00
  0.00000000E+00  0.00000000E+00  0.00000000E+00
  0.00000000E+00  0.00000000E+00  0.00000000E+00
  0.00000000E+00  0.00000000E+00  0.00000000E+00
  0.00000000E+00  0.00000000E+00  0.00000000E+00
  0.00000000E+00  0.00000000E+00  0.00000000E+00
  0.00000000E+00  0.00000000E+00  0.00000000E+00
  0.00000000E+00  0.00000000E+00  0.00000000E+00
  0.00000000E+00  0.00000000E+00  0.00000000E+00
  0.00000000E+00  0.00000000E+00  0.00000000E+00
  0.00000000E+00  0.00000000E+00  0.00000000E+00
  0.00000000E+00  0.00000000E+00  0.00000000E+00
  0.00000000E+00  0.00000000E+00  0.00000000E+00
  0.00000000E+00  0.00000000E+00  0.00000000E+00
  0.00000000E+00  0.00000000E+00  0.00000000E+00
  0.00000000E+00  0.00000000E+00  0.00000000E+00
  0.00000000E+00  0.00000000E+00  0.00000000E+00
