supercell of natacl6_p21c.cif           
   1.00000000000000     
    12.8086700406632197    0.0000004227264436   -0.0315492974735766
     0.0000004651105324   13.6960863482870359   -0.0000019106395650
    -0.3327533513840475   -0.0000026420200669   18.8435734257652570
   Na   Ta   Cl
    15    16    95
Direct
  0.1224386974154328  0.3556530874047397  0.7699646393432076
  0.1052775439358271  0.4040380000342907  0.2522687177921767
  0.3952045254008496  0.1547651614430450  0.2465235904460172
  0.8757123640767119  0.0920163556230236  0.7595120203269801
  0.5966429810367231  0.3432304410366598  0.7467734015191496
  0.6048320711056121  0.4053320542697918  0.2514054144932487
  0.8951531241617730  0.1534156544322514  0.2464769740891057
  0.4046737786362868  0.5981989075624838  0.7536038915975425
  0.1183613483620931  0.8335193901882576  0.7674429947065278
  0.1058902218015660  0.9045348055303535  0.2531945602485024
  0.3946258008979058  0.6545034744410287  0.2460878322752222
  0.8906735946332063  0.5945525935978822  0.7413494995444410
  0.5980164565150048  0.8487376986441646  0.7520180597838007
  0.6053205082611939  0.9051341274207090  0.2523178222414799
  0.8952919071527177  0.6551455334365386  0.2462747022009424
  0.1003880894488489  0.1603095230791851  0.6215891368370805
  0.3788826980734115  0.3894550236881358  0.8843200775466542
  0.3733175611350603  0.3584836395898847  0.3842481988338662
  0.1281341963647336  0.1075822052741415  0.1143934068622414
  0.6185818342996825  0.1389322563034696  0.6173280378853789
  0.8682376597762342  0.3928765672834373  0.8850921806828964
  0.8716831298106271  0.3578853613059536  0.3845448848237609
  0.6283302116232932  0.1078466109705545  0.1146677253530157
  0.1317439737494084  0.6398011801899344  0.6158231391320115
  0.3730412724298020  0.9006257099708677  0.8810560121364688
  0.3730916076359279  0.8568643119917709  0.3839646846850542
  0.1288246849434032  0.6080408414618361  0.1149115091084809
  0.6279223695996450  0.6424180431365585  0.6150990808789345
  0.8699895063223693  0.8881019839803912  0.8857328076192843
  0.8717333944713275  0.8578571974894516  0.3855392610896615
  0.6280179977858040  0.6085165234807306  0.1150013734897684
  0.2016077239930993  0.1563131985691300  0.7261222293967933
  0.3226296145506709  0.4078052320962726  0.7568948635403032
  0.3119470368042059  0.3437568005744325  0.2589767497769060
  0.1893479204983919  0.0930685054324769  0.2399056592200139
  0.2226984871712787  0.3042422685962052  0.9051881971702471
  0.2231280137684664  0.4475562607159631  0.4082954716262179
  0.2768406975762758  0.1985332179338215  0.0907908732197171
  0.0429232043320198  0.4926193139478841  0.6571282133916867
  0.4609222414284204  0.2442054594910061  0.8463212449871804
  0.4613605727655710  0.0039794860694897  0.3449280026425541
  0.0384884968270001  0.2539789435831068  0.1540809201704931
  0.0829539955617022  0.1108547337685764  0.5059818491924659
  0.4427315793414692  0.3727534193416915  0.9983732199149102
  0.4456564925956954  0.3756739781345715  0.4961082153436109
  0.0546131871972122  0.1257189711527431  0.0029028313098749
  0.4658193044038796  0.2241740721715075  0.6523513843870887
  0.0170910089714624  0.4893209349412402  0.8463541282680254
  0.0242053825810871  0.2662770217235604  0.3459218125207997
  0.4760711235769435  0.0172069246520508  0.1539602452041819
  0.2022195070362116  0.2900982357078519  0.5866002356520283
  0.2893127472486086  0.0451299978631567  0.9088468111591155
  0.2945115249194501  0.2085351437414928  0.4078101801615048
  0.2078202050143716  0.4589886309841233  0.0906334639705548
  0.6789757038169668  0.1558843588216732  0.7432467483531866
  0.8037560067556342  0.4097151193861848  0.7610672698184544
  0.8104028551940132  0.3416995706330397  0.2599040996617461
  0.6891966301512511  0.0929987140984849  0.2403224792961396
  0.7774724854998780  0.0554382934745448  0.5978074326429876
  0.7251015885067673  0.2954309721893011  0.9085901684827746
  0.7230896662893400  0.4483428845882997  0.4089203618591455
  0.7777519703114280  0.1984423987551693  0.0914954513079422
  0.5379630916683524  0.4961074127238447  0.6538563146430931
  0.9634062091950994  0.2495989254909432  0.8397042499803078
  0.9614311667675679  0.0047928730170668  0.3469210308794644
  0.5391104277453067  0.2543790744916947  0.1541563147120755
  0.5602292804010247  0.1220998130090081  0.5015380472797304
  0.9467161678443361  0.3709658619562575  0.9946345963140857
  0.9466860044160015  0.3785099699657550  0.4959399474029027
  0.5557662780957742  0.1265660451236741  0.0031923434051606
  0.9546713318721558  0.2437173328128779  0.6506835282079564
  0.5322597015444117  0.4801058574990762  0.8479300956015834
  0.5255690763348326  0.2680379887182838  0.3447813778486477
  0.9761044199389630  0.0165464564453046  0.1544158654516252
  0.6993476341294311  0.2911648624639724  0.5952580745604763
  0.7925032099199498  0.0396536408985426  0.9077773376880316
  0.7935909932399454  0.2092678038682649  0.4110254133673692
  0.7070405897221477  0.4589651823204335  0.0913190954561358
  0.1968180604936407  0.6508039258838920  0.7399966938354794
  0.3135633102409230  0.9136286811863457  0.7575751553206231
  0.3121305079602266  0.8423101203274186  0.2585827019363691
  0.1890559299649937  0.5926064160245659  0.2404539720937393
  0.2777629942928499  0.5482175939259193  0.5880965854758884
  0.2238391895396674  0.8037836831734921  0.9041693456684357
  0.2224249061366308  0.9463994228619512  0.4064847374581433
  0.2778319466299735  0.6984418085760922  0.0914786344013621
  0.0447671563874650  0.0023311826161745  0.6547410766509927
  0.4631973694478049  0.7498445865775523  0.8447226833399455
  0.4616583648204582  0.5053051063640055  0.3455982722036595
  0.0393724769713799  0.7544207688842661  0.1546445709635265
  0.0514724949859229  0.6224009141202771  0.5062874886595949
  0.4391944050949519  0.8759754372548514  0.9951063203319634
  0.4438439313205151  0.8768038370389348  0.4960183051477287
  0.0559064383938477  0.6268306353178446  0.0033958311796596
  0.4746713605218744  0.7319435176075331  0.6521200923413062
  0.0213926766930683  0.9796253861255479  0.8429479936434348
  0.0241260300227140  0.7670494112397535  0.3462656269385462
  0.4757858565993871  0.5174160298355233  0.1545276389913894
  0.2117605690168034  0.7878264963453390  0.5903912982163817
  0.2981389187492596  0.5404359246460828  0.9054118706606360
  0.2936322272650287  0.7079115850228774  0.4083005513597513
  0.2075020610977347  0.9588899798664272  0.0905121704221230
  0.6862068061289435  0.6582405338824131  0.7408576268659814
  0.8074128981829816  0.9007384874518678  0.7605706632542137
  0.8114936093943612  0.8438164625413549  0.2600664410337714
  0.6892621247914477  0.5934078463614298  0.2405156357096772
  0.7786296500723040  0.5516305093715204  0.5934879809178071
  0.7211189314324855  0.8012479715567764  0.9132121509065740
  0.7227478939088883  0.9482224304095652  0.4092483641101197
  0.7778841926177265  0.6980378162626550  0.0913013038423145
  0.5370676291238894  0.9904666198217598  0.6510735942103594
  0.9565290837145071  0.7406587883022695  0.8477781700793017
  0.9610011383716568  0.5040205795159451  0.3446561586211843
  0.5394454105840296  0.7550109898327335  0.1543134681665279
  0.5579512234835065  0.6219021032198810  0.5027284128773246
  0.9473309204973503  0.8750216675984177  0.9963217850631523
  0.9442590044737500  0.8756457470945307  0.4976317469651192
  0.5542753990189127  0.6268852782258492  0.0038282140609240
  0.9834548996308428  0.7342575985042856  0.6586032508580999
  0.5262898485105794  0.9863880349415126  0.8473432749290737
  0.5255389883995534  0.7666706744033931  0.3453508302906769
  0.9761198509168310  0.5169969776703454  0.1539622173852280
  0.7083683996266998  0.7905250102272987  0.5905522201734001
  0.7863796132469076  0.5378428106210293  0.9136424350863521
  0.7922273762758465  0.7088110227831947  0.4091314183124268
  0.7079862698368444  0.9589346171148776  0.0906652813103292
 
  0.00000000E+00  0.00000000E+00  0.00000000E+00
  0.00000000E+00  0.00000000E+00  0.00000000E+00
  0.00000000E+00  0.00000000E+00  0.00000000E+00
  0.00000000E+00  0.00000000E+00  0.00000000E+00
  0.00000000E+00  0.00000000E+00  0.00000000E+00
  0.00000000E+00  0.00000000E+00  0.00000000E+00
  0.00000000E+00  0.00000000E+00  0.00000000E+00
  0.00000000E+00  0.00000000E+00  0.00000000E+00
  0.00000000E+00  0.00000000E+00  0.00000000E+00
  0.00000000E+00  0.00000000E+00  0.00000000E+00
  0.00000000E+00  0.00000000E+00  0.00000000E+00
  0.00000000E+00  0.00000000E+00  0.00000000E+00
  0.00000000E+00  0.00000000E+00  0.00000000E+00
  0.00000000E+00  0.00000000E+00  0.00000000E+00
  0.00000000E+00  0.00000000E+00  0.00000000E+00
  0.00000000E+00  0.00000000E+00  0.00000000E+00
  0.00000000E+00  0.00000000E+00  0.00000000E+00
  0.00000000E+00  0.00000000E+00  0.00000000E+00
  0.00000000E+00  0.00000000E+00  0.00000000E+00
  0.00000000E+00  0.00000000E+00  0.00000000E+00
  0.00000000E+00  0.00000000E+00  0.00000000E+00
  0.00000000E+00  0.00000000E+00  0.00000000E+00
  0.00000000E+00  0.00000000E+00  0.00000000E+00
  0.00000000E+00  0.00000000E+00  0.00000000E+00
  0.00000000E+00  0.00000000E+00  0.00000000E+00
  0.00000000E+00  0.00000000E+00  0.00000000E+00
  0.00000000E+00  0.00000000E+00  0.00000000E+00
  0.00000000E+00  0.00000000E+00  0.00000000E+00
  0.00000000E+00  0.00000000E+00  0.00000000E+00
  0.00000000E+00  0.00000000E+00  0.00000000E+00
  0.00000000E+00  0.00000000E+00  0.00000000E+00
  0.00000000E+00  0.00000000E+00  0.00000000E+00
  0.00000000E+00  0.00000000E+00  0.00000000E+00
  0.00000000E+00  0.00000000E+00  0.00000000E+00
  0.00000000E+00  0.00000000E+00  0.00000000E+00
  0.00000000E+00  0.00000000E+00  0.00000000E+00
  0.00000000E+00  0.00000000E+00  0.00000000E+00
  0.00000000E+00  0.00000000E+00  0.00000000E+00
  0.00000000E+00  0.00000000E+00  0.00000000E+00
  0.00000000E+00  0.00000000E+00  0.00000000E+00
  0.00000000E+00  0.00000000E+00  0.00000000E+00
  0.00000000E+00  0.00000000E+00  0.00000000E+00
  0.00000000E+00  0.00000000E+00  0.00000000E+00
  0.00000000E+00  0.00000000E+00  0.00000000E+00
  0.00000000E+00  0.00000000E+00  0.00000000E+00
  0.00000000E+00  0.00000000E+00  0.00000000E+00
  0.00000000E+00  0.00000000E+00  0.00000000E+00
  0.00000000E+00  0.00000000E+00  0.00000000E+00
  0.00000000E+00  0.00000000E+00  0.00000000E+00
  0.00000000E+00  0.00000000E+00  0.00000000E+00
  0.00000000E+00  0.00000000E+00  0.00000000E+00
  0.00000000E+00  0.00000000E+00  0.00000000E+00
  0.00000000E+00  0.00000000E+00  0.00000000E+00
  0.00000000E+00  0.00000000E+00  0.00000000E+00
  0.00000000E+00  0.00000000E+00  0.00000000E+00
  0.00000000E+00  0.00000000E+00  0.00000000E+00
  0.00000000E+00  0.00000000E+00  0.00000000E+00
  0.00000000E+00  0.00000000E+00  0.00000000E+00
  0.00000000E+00  0.00000000E+00  0.00000000E+00
  0.00000000E+00  0.00000000E+00  0.00000000E+00
  0.00000000E+00  0.00000000E+00  0.00000000E+00
  0.00000000E+00  0.00000000E+00  0.00000000E+00
  0.00000000E+00  0.00000000E+00  0.00000000E+00
  0.00000000E+00  0.00000000E+00  0.00000000E+00
  0.00000000E+00  0.00000000E+00  0.00000000E+00
  0.00000000E+00  0.00000000E+00  0.00000000E+00
  0.00000000E+00  0.00000000E+00  0.00000000E+00
  0.00000000E+00  0.00000000E+00  0.00000000E+00
  0.00000000E+00  0.00000000E+00  0.00000000E+00
  0.00000000E+00  0.00000000E+00  0.00000000E+00
  0.00000000E+00  0.00000000E+00  0.00000000E+00
  0.00000000E+00  0.00000000E+00  0.00000000E+00
  0.00000000E+00  0.00000000E+00  0.00000000E+00
  0.00000000E+00  0.00000000E+00  0.00000000E+00
  0.00000000E+00  0.00000000E+00  0.00000000E+00
  0.00000000E+00  0.00000000E+00  0.00000000E+00
  0.00000000E+00  0.00000000E+00  0.00000000E+00
  0.00000000E+00  0.00000000E+00  0.00000000E+00
  0.00000000E+00  0.00000000E+00  0.00000000E+00
  0.00000000E+00  0.00000000E+00  0.00000000E+00
  0.00000000E+00  0.00000000E+00  0.00000000E+00
  0.00000000E+00  0.00000000E+00  0.00000000E+00
  0.00000000E+00  0.00000000E+00  0.00000000E+00
  0.00000000E+00  0.00000000E+00  0.00000000E+00
  0.00000000E+00  0.00000000E+00  0.00000000E+00
  0.00000000E+00  0.00000000E+00  0.00000000E+00
  0.00000000E+00  0.00000000E+00  0.00000000E+00
  0.00000000E+00  0.00000000E+00  0.00000000E+00
  0.00000000E+00  0.00000000E+00  0.00000000E+00
  0.00000000E+00  0.00000000E+00  0.00000000E+00
  0.00000000E+00  0.00000000E+00  0.00000000E+00
  0.00000000E+00  0.00000000E+00  0.00000000E+00
  0.00000000E+00  0.00000000E+00  0.00000000E+00
  0.00000000E+00  0.00000000E+00  0.00000000E+00
  0.00000000E+00  0.00000000E+00  0.00000000E+00
  0.00000000E+00  0.00000000E+00  0.00000000E+00
  0.00000000E+00  0.00000000E+00  0.00000000E+00
  0.00000000E+00  0.00000000E+00  0.00000000E+00
  0.00000000E+00  0.00000000E+00  0.00000000E+00
  0.00000000E+00  0.00000000E+00  0.00000000E+00
  0.00000000E+00  0.00000000E+00  0.00000000E+00
  0.00000000E+00  0.00000000E+00  0.00000000E+00
  0.00000000E+00  0.00000000E+00  0.00000000E+00
  0.00000000E+00  0.00000000E+00  0.00000000E+00
  0.00000000E+00  0.00000000E+00  0.00000000E+00
  0.00000000E+00  0.00000000E+00  0.00000000E+00
  0.00000000E+00  0.00000000E+00  0.00000000E+00
  0.00000000E+00  0.00000000E+00  0.00000000E+00
  0.00000000E+00  0.00000000E+00  0.00000000E+00
  0.00000000E+00  0.00000000E+00  0.00000000E+00
  0.00000000E+00  0.00000000E+00  0.00000000E+00
  0.00000000E+00  0.00000000E+00  0.00000000E+00
  0.00000000E+00  0.00000000E+00  0.00000000E+00
  0.00000000E+00  0.00000000E+00  0.00000000E+00
  0.00000000E+00  0.00000000E+00  0.00000000E+00
  0.00000000E+00  0.00000000E+00  0.00000000E+00
  0.00000000E+00  0.00000000E+00  0.00000000E+00
  0.00000000E+00  0.00000000E+00  0.00000000E+00
  0.00000000E+00  0.00000000E+00  0.00000000E+00
  0.00000000E+00  0.00000000E+00  0.00000000E+00
  0.00000000E+00  0.00000000E+00  0.00000000E+00
  0.00000000E+00  0.00000000E+00  0.00000000E+00
  0.00000000E+00  0.00000000E+00  0.00000000E+00
  0.00000000E+00  0.00000000E+00  0.00000000E+00
  0.00000000E+00  0.00000000E+00  0.00000000E+00
  0.00000000E+00  0.00000000E+00  0.00000000E+00
