supercell of natacl6_p21c.cif           
   1.00000000000000     
    12.8086700406632197    0.0000004227264436   -0.0315492974735766
     0.0000004651105324   13.6960863482870359   -0.0000019106395650
    -0.3327533513840475   -0.0000026420200669   18.8435734257652570
   Na   Ta   Cl
    17    16    96
Direct
  0.3823875387090752  0.1043598755969413  0.7424595552244782
  0.1048938225530307  0.3428622721420780  0.7455092280984559
  0.1042620876726872  0.4060445683709020  0.2555753336825788
  0.3937649696839713  0.1578040168886972  0.2459255876994462
  0.9063345823213922  0.0947858096369245  0.7418650388064663
  0.6087579653869497  0.3429960526722837  0.7601337390546661
  0.6041236122679550  0.4064933392613952  0.2570326768881301
  0.8943420450407373  0.1555422741049597  0.2483735557438038
  0.3893589742645105  0.5947438446085087  0.7533386742917614
  0.0948851310224299  0.8514587447605848  0.7510581612571201
  0.0986326419048424  0.9054666912106413  0.2524004824588388
  0.3945419757986812  0.6519963794703401  0.2437629091434417
  0.8974870889394140  0.5981494921000277  0.7557524032638057
  0.6118780554198864  0.8442390665778561  0.7604873503418048
  0.6083254690513442  0.9042926999303802  0.2486529778889448
  0.8956036205995090  0.6551636676845902  0.2483032982817406
  0.3640125208212552  0.8917272165627210  0.6170843095348815
  0.1232150041208584  0.1481437772557612  0.6173938652697188
  0.3709292501970509  0.3924823067739709  0.8872538182279470
  0.3686987080922748  0.3579652100249646  0.3867348933416679
  0.1280891851718735  0.1091634255062317  0.1164989946196755
  0.6325100249799505  0.1452641794857357  0.6160439304222720
  0.8745211310545429  0.3921579309395682  0.8849222228202791
  0.8699831456825464  0.3572771297793764  0.3849421563658098
  0.6284807131982575  0.1101506672849837  0.1153497544141828
  0.1172117907693959  0.6406424930242451  0.6128849894754183
  0.3712903434992967  0.8951723323854495  0.8877369423813093
  0.3736424709178721  0.8574121104561385  0.3811136673444366
  0.1282068081807139  0.6079417933319320  0.1159774110348835
  0.6287102500737305  0.6379450749170061  0.6154709397120399
  0.8717141916859958  0.8952692664763617  0.8869735867651869
  0.8704519054721800  0.8592758703737928  0.3852040199098710
  0.6299459992499976  0.6075530956294486  0.1139331698141604
  0.1793389254155997  0.1554726176650760  0.7466256349233191
  0.3093809550889475  0.4081177016962485  0.7626095938570998
  0.3088558996610757  0.3436137463096784  0.2606853653190200
  0.1885743739789021  0.0921868318308086  0.2418598929360911
  0.2900365554105164  0.0687212058496058  0.5927805542436602
  0.2222482916565625  0.3038265805011022  0.9130256127135254
  0.2197444413984613  0.4493491555950655  0.4092913062008208
  0.2782025991322001  0.1986331932378604  0.0932547499729708
  0.0329855100052896  0.4969379224335952  0.6548509067993251
  0.4586237672641644  0.2455871578932971  0.8474430822433945
  0.4612063690742332  0.0040269739492231  0.3420573179897417
  0.0399091668948515  0.2556877787208052  0.1559399855610124
  0.0560682120300058  0.1232917141522236  0.5035750185572354
  0.4465350912637049  0.3749403273472893  0.9982583315152311
  0.4415909989687492  0.3770936269737319  0.4981616207999195
  0.0556778036598260  0.1283630914043243  0.0048552057082532
  0.4832185909486384  0.2370751221263419  0.6577953461364743
  0.0287554543665465  0.4799425326909912  0.8449712615055347
  0.0223288561517165  0.2670437806393196  0.3459136785232744
  0.4753706234951949  0.0193681172703464  0.1540653328354722
  0.2069812595825837  0.3016421697830083  0.6020391227629673
  0.2903180573911897  0.0426136125866563  0.9118746798218353
  0.2892740613565508  0.2098188468026763  0.4107859372526832
  0.2082709256998783  0.4592746146625188  0.0923987813711449
  0.6977086194961473  0.1582448285685274  0.7396929545258928
  0.8122805033087417  0.4089771565302414  0.7599529844777280
  0.8093911163148420  0.3433379243676598  0.2592022006180343
  0.6888881205990742  0.0940707396961145  0.2406015874744156
  0.7774560541967119  0.0511858240180558  0.5897802916767887
  0.7221354115110827  0.3060217295383936  0.9095230010528468
  0.7203099970899984  0.4481824679066193  0.4082668449607354
  0.7783856161147256  0.1990702878597830  0.0913379167717210
  0.5381752491752465  0.4948060851311737  0.6563568880679398
  0.9592886653983896  0.2449467480230751  0.8474681224425424
  0.9613862611670143  0.0051268103520172  0.3470910881228590
  0.5405053704922196  0.2566434967856353  0.1551258155580939
  0.5507653238300279  0.1214259852263879  0.5075669287423210
  0.9456580059722839  0.3757729301959216  0.9973369760988149
  0.9427240080793524  0.3754478127513465  0.4962728367867228
  0.5555889099024611  0.1287183199723287  0.0036952017775391
  0.9671295536071511  0.2389795462891584  0.6543434485522326
  0.5238853361137856  0.4834379243799418  0.8471165893625638
  0.5212432439221999  0.2670316235627652  0.3472604317767178
  0.9745805597790351  0.0190521542724298  0.1549554549522725
  0.7101557503718041  0.2917008790023985  0.5870542683270230
  0.7895923796554527  0.0424315079045101  0.9109841048117175
  0.7897504607606010  0.2086158302783616  0.4083322495751247
  0.7099973216941322  0.4594264537573167  0.0894241190093652
  0.1868872667981591  0.6658154163711743  0.7354849890214155
  0.3044753575900856  0.9106041853750142  0.7609617806831537
  0.3059162023446902  0.8424333283737226  0.2596431481326889
  0.1883224939674903  0.5941010515289875  0.2417291508601309
  0.2702517815725543  0.5572511515453584  0.5886942689665275
  0.2230726930778104  0.8032167395183478  0.9103236171988414
  0.2300602896730553  0.9482233229896480  0.4142387961343630
  0.2779761403440020  0.6985384807585930  0.0928710768719938
  0.0405076639541093  0.9919044423916930  0.6540921064927829
  0.4596026862760709  0.7490509964154057  0.8464331829833043
  0.4582933508872529  0.5048556890880747  0.3464980664237629
  0.0387752834517698  0.7547241372012863  0.1548124250121745
  0.0426980028019486  0.6201425429044605  0.5021011438240564
  0.4456700197174541  0.8760163383089861  0.9983256917215684
  0.4636018752860380  0.8737191156737083  0.4903070512249954
  0.0565094290362254  0.6265475275554806  0.0040721416485141
  0.4734333438485407  0.7294928477020619  0.6601702791558353
  0.0239888224681124  0.9856499558800138  0.8502940875218172
  0.0241455450817583  0.7683226256312210  0.3477215986157987
  0.4782226416964619  0.5157551762456691  0.1536237489108103
  0.1876824573068561  0.7943994783779544  0.5798813498610542
  0.2936019243849088  0.5431141634535948  0.9111294239260417
  0.2961238840514113  0.7098721454230628  0.4109984767140347
  0.2063110460527540  0.9595386654115359  0.0919499483968096
  0.6906958137816517  0.6550938415672434  0.7398809671588609
  0.8140729268875333  0.9091040867176048  0.7610020845582710
  0.8135182601849920  0.8440164529819327  0.2586059806387837
  0.6900418585968566  0.5934998381867160  0.2394320817806701
  0.7753311581243949  0.5497844458375027  0.5876753603456777
  0.7218936875223179  0.8024883157113294  0.9078748690426153
  0.7203467115496949  0.9497906914886443  0.4061119252336240
  0.7783189143037959  0.6991915287949837  0.0908460897661030
  0.5438752649420451  0.9957081615955232  0.6609083468243853
  0.9633513683105619  0.7486622523009743  0.8484956662134735
  0.9586033275850880  0.5045629913796148  0.3455984812861459
  0.5388396804656281  0.7539563085261207  0.1525847728773329
  0.5484682858269210  0.6239158038691883  0.5057853839809709
  0.9408874367800237  0.8748574355376277  0.9995022471228694
  0.9387801904980080  0.8770238574703697  0.4977153530731755
  0.5565966783456133  0.6260522303847651  0.0023964261326697
  0.9671470601341454  0.7319076046711857  0.6545938221745686
  0.5198644997122699  0.9864443323964096  0.8455197070549900
  0.5237151309140486  0.7653491743276106  0.3396107293378350
  0.9760167034414096  0.5174872708174831  0.1549930895752780
  0.7019387350755153  0.7897418197588664  0.5917560851020838
  0.7981285074735922  0.5439378050915380  0.9082107926566110
  0.7895363811280660  0.7100955352333358  0.4075454993148853
  0.7065855464467887  0.9601593848096144  0.0914088644751061
 
  0.00000000E+00  0.00000000E+00  0.00000000E+00
  0.00000000E+00  0.00000000E+00  0.00000000E+00
  0.00000000E+00  0.00000000E+00  0.00000000E+00
  0.00000000E+00  0.00000000E+00  0.00000000E+00
  0.00000000E+00  0.00000000E+00  0.00000000E+00
  0.00000000E+00  0.00000000E+00  0.00000000E+00
  0.00000000E+00  0.00000000E+00  0.00000000E+00
  0.00000000E+00  0.00000000E+00  0.00000000E+00
  0.00000000E+00  0.00000000E+00  0.00000000E+00
  0.00000000E+00  0.00000000E+00  0.00000000E+00
  0.00000000E+00  0.00000000E+00  0.00000000E+00
  0.00000000E+00  0.00000000E+00  0.00000000E+00
  0.00000000E+00  0.00000000E+00  0.00000000E+00
  0.00000000E+00  0.00000000E+00  0.00000000E+00
  0.00000000E+00  0.00000000E+00  0.00000000E+00
  0.00000000E+00  0.00000000E+00  0.00000000E+00
  0.00000000E+00  0.00000000E+00  0.00000000E+00
  0.00000000E+00  0.00000000E+00  0.00000000E+00
  0.00000000E+00  0.00000000E+00  0.00000000E+00
  0.00000000E+00  0.00000000E+00  0.00000000E+00
  0.00000000E+00  0.00000000E+00  0.00000000E+00
  0.00000000E+00  0.00000000E+00  0.00000000E+00
  0.00000000E+00  0.00000000E+00  0.00000000E+00
  0.00000000E+00  0.00000000E+00  0.00000000E+00
  0.00000000E+00  0.00000000E+00  0.00000000E+00
  0.00000000E+00  0.00000000E+00  0.00000000E+00
  0.00000000E+00  0.00000000E+00  0.00000000E+00
  0.00000000E+00  0.00000000E+00  0.00000000E+00
  0.00000000E+00  0.00000000E+00  0.00000000E+00
  0.00000000E+00  0.00000000E+00  0.00000000E+00
  0.00000000E+00  0.00000000E+00  0.00000000E+00
  0.00000000E+00  0.00000000E+00  0.00000000E+00
  0.00000000E+00  0.00000000E+00  0.00000000E+00
  0.00000000E+00  0.00000000E+00  0.00000000E+00
  0.00000000E+00  0.00000000E+00  0.00000000E+00
  0.00000000E+00  0.00000000E+00  0.00000000E+00
  0.00000000E+00  0.00000000E+00  0.00000000E+00
  0.00000000E+00  0.00000000E+00  0.00000000E+00
  0.00000000E+00  0.00000000E+00  0.00000000E+00
  0.00000000E+00  0.00000000E+00  0.00000000E+00
  0.00000000E+00  0.00000000E+00  0.00000000E+00
  0.00000000E+00  0.00000000E+00  0.00000000E+00
  0.00000000E+00  0.00000000E+00  0.00000000E+00
  0.00000000E+00  0.00000000E+00  0.00000000E+00
  0.00000000E+00  0.00000000E+00  0.00000000E+00
  0.00000000E+00  0.00000000E+00  0.00000000E+00
  0.00000000E+00  0.00000000E+00  0.00000000E+00
  0.00000000E+00  0.00000000E+00  0.00000000E+00
  0.00000000E+00  0.00000000E+00  0.00000000E+00
  0.00000000E+00  0.00000000E+00  0.00000000E+00
  0.00000000E+00  0.00000000E+00  0.00000000E+00
  0.00000000E+00  0.00000000E+00  0.00000000E+00
  0.00000000E+00  0.00000000E+00  0.00000000E+00
  0.00000000E+00  0.00000000E+00  0.00000000E+00
  0.00000000E+00  0.00000000E+00  0.00000000E+00
  0.00000000E+00  0.00000000E+00  0.00000000E+00
  0.00000000E+00  0.00000000E+00  0.00000000E+00
  0.00000000E+00  0.00000000E+00  0.00000000E+00
  0.00000000E+00  0.00000000E+00  0.00000000E+00
  0.00000000E+00  0.00000000E+00  0.00000000E+00
  0.00000000E+00  0.00000000E+00  0.00000000E+00
  0.00000000E+00  0.00000000E+00  0.00000000E+00
  0.00000000E+00  0.00000000E+00  0.00000000E+00
  0.00000000E+00  0.00000000E+00  0.00000000E+00
  0.00000000E+00  0.00000000E+00  0.00000000E+00
  0.00000000E+00  0.00000000E+00  0.00000000E+00
  0.00000000E+00  0.00000000E+00  0.00000000E+00
  0.00000000E+00  0.00000000E+00  0.00000000E+00
  0.00000000E+00  0.00000000E+00  0.00000000E+00
  0.00000000E+00  0.00000000E+00  0.00000000E+00
  0.00000000E+00  0.00000000E+00  0.00000000E+00
  0.00000000E+00  0.00000000E+00  0.00000000E+00
  0.00000000E+00  0.00000000E+00  0.00000000E+00
  0.00000000E+00  0.00000000E+00  0.00000000E+00
  0.00000000E+00  0.00000000E+00  0.00000000E+00
  0.00000000E+00  0.00000000E+00  0.00000000E+00
  0.00000000E+00  0.00000000E+00  0.00000000E+00
  0.00000000E+00  0.00000000E+00  0.00000000E+00
  0.00000000E+00  0.00000000E+00  0.00000000E+00
  0.00000000E+00  0.00000000E+00  0.00000000E+00
  0.00000000E+00  0.00000000E+00  0.00000000E+00
  0.00000000E+00  0.00000000E+00  0.00000000E+00
  0.00000000E+00  0.00000000E+00  0.00000000E+00
  0.00000000E+00  0.00000000E+00  0.00000000E+00
  0.00000000E+00  0.00000000E+00  0.00000000E+00
  0.00000000E+00  0.00000000E+00  0.00000000E+00
  0.00000000E+00  0.00000000E+00  0.00000000E+00
  0.00000000E+00  0.00000000E+00  0.00000000E+00
  0.00000000E+00  0.00000000E+00  0.00000000E+00
  0.00000000E+00  0.00000000E+00  0.00000000E+00
  0.00000000E+00  0.00000000E+00  0.00000000E+00
  0.00000000E+00  0.00000000E+00  0.00000000E+00
  0.00000000E+00  0.00000000E+00  0.00000000E+00
  0.00000000E+00  0.00000000E+00  0.00000000E+00
  0.00000000E+00  0.00000000E+00  0.00000000E+00
  0.00000000E+00  0.00000000E+00  0.00000000E+00
  0.00000000E+00  0.00000000E+00  0.00000000E+00
  0.00000000E+00  0.00000000E+00  0.00000000E+00
  0.00000000E+00  0.00000000E+00  0.00000000E+00
  0.00000000E+00  0.00000000E+00  0.00000000E+00
  0.00000000E+00  0.00000000E+00  0.00000000E+00
  0.00000000E+00  0.00000000E+00  0.00000000E+00
  0.00000000E+00  0.00000000E+00  0.00000000E+00
  0.00000000E+00  0.00000000E+00  0.00000000E+00
  0.00000000E+00  0.00000000E+00  0.00000000E+00
  0.00000000E+00  0.00000000E+00  0.00000000E+00
  0.00000000E+00  0.00000000E+00  0.00000000E+00
  0.00000000E+00  0.00000000E+00  0.00000000E+00
  0.00000000E+00  0.00000000E+00  0.00000000E+00
  0.00000000E+00  0.00000000E+00  0.00000000E+00
  0.00000000E+00  0.00000000E+00  0.00000000E+00
  0.00000000E+00  0.00000000E+00  0.00000000E+00
  0.00000000E+00  0.00000000E+00  0.00000000E+00
  0.00000000E+00  0.00000000E+00  0.00000000E+00
  0.00000000E+00  0.00000000E+00  0.00000000E+00
  0.00000000E+00  0.00000000E+00  0.00000000E+00
  0.00000000E+00  0.00000000E+00  0.00000000E+00
  0.00000000E+00  0.00000000E+00  0.00000000E+00
  0.00000000E+00  0.00000000E+00  0.00000000E+00
  0.00000000E+00  0.00000000E+00  0.00000000E+00
  0.00000000E+00  0.00000000E+00  0.00000000E+00
  0.00000000E+00  0.00000000E+00  0.00000000E+00
  0.00000000E+00  0.00000000E+00  0.00000000E+00
  0.00000000E+00  0.00000000E+00  0.00000000E+00
  0.00000000E+00  0.00000000E+00  0.00000000E+00
  0.00000000E+00  0.00000000E+00  0.00000000E+00
  0.00000000E+00  0.00000000E+00  0.00000000E+00
  0.00000000E+00  0.00000000E+00  0.00000000E+00
  0.00000000E+00  0.00000000E+00  0.00000000E+00
