supercell of natacl6_p21c.cif           
   1.00000000000000     
    12.8086700406632197    0.0000004227264436   -0.0315492974735766
     0.0000004651105324   13.6960863482870359   -0.0000019106395650
    -0.3327533513840475   -0.0000026420200669   18.8435734257652570
   Na   Ta   Cl
    17    16    96
Direct
  0.3948639621601231  0.0967364232214933  0.7449024032875684
  0.1096811085843044  0.3410357036411540  0.7597889682450472
  0.1055638284341853  0.4066709972925366  0.2543101793892433
  0.3928195067017342  0.1533056197572265  0.2472208769003927
  0.8951090572329932  0.0952251363385770  0.7452148658982836
  0.6039209194647484  0.3436075772341738  0.7565464307741649
  0.6060239846020465  0.4052352657111413  0.2516671184887826
  0.8968910589375412  0.1534344212089138  0.2527862266943046
  0.3961103727576472  0.5902093695905464  0.7452185899908841
  0.1032598211603002  0.8450629986957168  0.7488547239978516
  0.1071577193817959  0.8999922702381795  0.2555545346122727
  0.3967968239034931  0.6535232040163095  0.2447713847698978
  0.8960187749191206  0.5934739875554484  0.7452645136955880
  0.6060616400723333  0.8457478552436370  0.7481926309792044
  0.6051726446140009  0.9007066615421238  0.2513522278028191
  0.8949058417638298  0.6545139833155389  0.2449679822830504
  0.3698122691728827  0.1910635827152021  0.9733277799123883
  0.1277074307552368  0.1412950353416917  0.6132381677562293
  0.3693048234898981  0.4010888753405055  0.8776894001572941
  0.3729478620247093  0.3575710773213743  0.3838781798998951
  0.1240735981148759  0.1068144421723929  0.1189718966558289
  0.6286214972375177  0.1423952557784887  0.6139936718954289
  0.8701815168508773  0.3923056242066707  0.8837102709783835
  0.8717952128325734  0.3579944283589924  0.3853422091437793
  0.6347817575570076  0.1060478360329000  0.1174851052463950
  0.1294090669306271  0.6402263952011396  0.6138910346037889
  0.3720654390842029  0.8851762436547332  0.8811502317537361
  0.3734889941332185  0.8563885145959418  0.3838990233370509
  0.1290187986649372  0.6075821342436996  0.1139519817120771
  0.6293387493166449  0.6400727155112378  0.6140491630387146
  0.8727236548882900  0.8916219046660174  0.8841794271920378
  0.8715955321527176  0.8558023179801140  0.3854509931124355
  0.6292097891054667  0.6061798804184235  0.1131113961561923
  0.1890961651099019  0.1539701957294781  0.7382492131032379
  0.3099917273511963  0.4080551809859685  0.7519132346606412
  0.3108776341377038  0.3431421084067949  0.2587001374280078
  0.1847449594764825  0.0907072606552077  0.2438324632340922
  0.2768138097103616  0.0502819138437687  0.5894696465464691
  0.2167603968667891  0.3028646780185156  0.9038656192785055
  0.2238376978749201  0.4476506751961864  0.4082702223549362
  0.2772106889801975  0.2023950218422996  0.1025832180784221
  0.0421831673096733  0.4937402679705798  0.6538190245164159
  0.4578419841829628  0.2436456418546697  0.8426076352250149
  0.4629552042968825  0.0028748474555087  0.3437377478614607
  0.0363729390808842  0.2537677584658482  0.1566544476268206
  0.0534437531993959  0.1213365471605101  0.5019262767412016
  0.4452302690712386  0.3757129500878520  0.9937133197410333
  0.4474166067796972  0.3749460627992818  0.4949065034213405
  0.0624112151024221  0.1299398510614367  0.0049484357670835
  0.4771910115537565  0.2340458139262864  0.6520857709577683
  0.0219845038140889  0.4832428639551765  0.8443013449264640
  0.0254950711848778  0.2680686879543543  0.3466015474672446
  0.4785794320027037  0.0173794914143173  0.1523744896488139
  0.2073205051761349  0.2891920818641864  0.5874626132363474
  0.2832977378918073  0.0346319068624368  0.9036158041647582
  0.2940960649343225  0.2081091373888597  0.4077884034175270
  0.2083086949417776  0.4593519357251665  0.0893319576553822
  0.6888092400572816  0.1563763798632749  0.7393674132659385
  0.8095566698575851  0.4062104459048470  0.7584590261590733
  0.8112220188277988  0.3414801964449765  0.2596951948503303
  0.6900320462111225  0.0925489860870101  0.2422199970503414
  0.7767598427862978  0.0494718005026797  0.5914571138185494
  0.7203688855279751  0.3031032586998705  0.9084385723226447
  0.7218828131400201  0.4471919393251227  0.4085908171183803
  0.7825683988748793  0.1966214964359381  0.0924644958943261
  0.5433564226496017  0.4925023687392525  0.6511093210880006
  0.9572292750308691  0.2441788938308562  0.8450467000234312
  0.9622952752350642  0.0019088426856371  0.3456299178956144
  0.5421590066343285  0.2524371156320626  0.1503364184743319
  0.5568475791448293  0.1233238362368070  0.5018579703672330
  0.9446642554408413  0.3737147818377977  0.9951908196778660
  0.9441883470885841  0.3763214397449701  0.4969242444428801
  0.5692877845616735  0.1181967866729465  0.0010279351969800
  0.9772216348592337  0.2330694665826698  0.6536205404968882
  0.5274087958858118  0.4874964760431197  0.8402896597870750
  0.5247174576974487  0.2664588873113587  0.3427526210683283
  0.9739155989982322  0.0152608903905147  0.1541865143989867
  0.7103172564427283  0.2897503949580553  0.5893206706704319
  0.7947632317623885  0.0413908294533840  0.9085323489208577
  0.7937405796867480  0.2078636224406551  0.4087827673465938
  0.7093358856195664  0.4574751397492633  0.0900244581020360
  0.1906775723083030  0.6572360311262599  0.7384818785595968
  0.3119334915936562  0.9031121474867021  0.7568234644788632
  0.3131179795369547  0.8420930392010462  0.2581020799993894
  0.1908197890005852  0.5931684571401732  0.2394396451548459
  0.2788028107789486  0.5514663294312001  0.5884248852987639
  0.2222095632765004  0.7974123250718179  0.9054937017474813
  0.2243184785580254  0.9471100716708989  0.4073135400211854
  0.2775391356570225  0.6987811313734014  0.0899033468756443
  0.0373879464671489  0.9946468249855798  0.6524222674870899
  0.4635697523774951  0.7425592835218922  0.8452148536768647
  0.4618820073246042  0.5039610177450129  0.3444839853014372
  0.0401453385416275  0.7545832191803044  0.1543930095258190
  0.0549412761848274  0.6223060927945525  0.5023661488372113
  0.4409412300206483  0.8746047350082264  0.9947347514687976
  0.4467292625162216  0.8754205498195375  0.4952072619218342
  0.0535027334353586  0.6265806835966146  0.0033397088511578
  0.4756337077056898  0.7293082607784100  0.6539588479660381
  0.0248961104919090  0.9819524711154344  0.8442062175164438
  0.0234244229354701  0.7641262496160053  0.3459907610674549
  0.4772009034045723  0.5156490762172012  0.1529172923451370
  0.2073007629349135  0.7901863454470188  0.5890796471319177
  0.2877983855250719  0.5472179565391002  0.9083513423882437
  0.2933298172768275  0.7079840268049722  0.4078026298726130
  0.2101544021314723  0.9620231980726857  0.0923021020739796
  0.6903613163941458  0.6562526394034620  0.7390654599114086
  0.8110148032648752  0.9069135979648166  0.7591920984838936
  0.8111990997003744  0.8421870080579623  0.2596026022438167
  0.6896811496714861  0.5926940767667261  0.2391063367781712
  0.7803592671103061  0.5529632858201836  0.5892926054309058
  0.7229340334269594  0.8025871752026461  0.9087632425459233
  0.7231038034424770  0.9472715688814546  0.4086538296405209
  0.7786575931496955  0.6969389574757372  0.0900724806561328
  0.5371132586227816  0.9963377430198221  0.6531498558358777
  0.9608745484955890  0.7451252445679941  0.8448449139406549
  0.9598195715476265  0.5044991357260216  0.3454168620979630
  0.5396420137939231  0.7533220598002686  0.1521341387190844
  0.5564369726779006  0.6238958451704733  0.5020104836851971
  0.9465176107677493  0.8737760967755435  0.9958751692907768
  0.9450727802499372  0.8745766065733562  0.4966416965097906
  0.5567582506547595  0.6243483933613945  0.0017047462087092
  0.9760696019665858  0.7310296280667856  0.6530280677849163
  0.5214965954935877  0.9815667490495130  0.8445238518029328
  0.5253921528151722  0.7651088924729379  0.3445087895521866
  0.9772815516717870  0.5165016948650347  0.1543938610871223
  0.7058659969598651  0.7913405652920389  0.5906094669946356
  0.7913992624010220  0.5413310057501022  0.9081423786067617
  0.7915246329006109  0.7074142667534815  0.4090874953449628
  0.7132528667008557  0.9562641862002081  0.0946792671117223
 
  0.00000000E+00  0.00000000E+00  0.00000000E+00
  0.00000000E+00  0.00000000E+00  0.00000000E+00
  0.00000000E+00  0.00000000E+00  0.00000000E+00
  0.00000000E+00  0.00000000E+00  0.00000000E+00
  0.00000000E+00  0.00000000E+00  0.00000000E+00
  0.00000000E+00  0.00000000E+00  0.00000000E+00
  0.00000000E+00  0.00000000E+00  0.00000000E+00
  0.00000000E+00  0.00000000E+00  0.00000000E+00
  0.00000000E+00  0.00000000E+00  0.00000000E+00
  0.00000000E+00  0.00000000E+00  0.00000000E+00
  0.00000000E+00  0.00000000E+00  0.00000000E+00
  0.00000000E+00  0.00000000E+00  0.00000000E+00
  0.00000000E+00  0.00000000E+00  0.00000000E+00
  0.00000000E+00  0.00000000E+00  0.00000000E+00
  0.00000000E+00  0.00000000E+00  0.00000000E+00
  0.00000000E+00  0.00000000E+00  0.00000000E+00
  0.00000000E+00  0.00000000E+00  0.00000000E+00
  0.00000000E+00  0.00000000E+00  0.00000000E+00
  0.00000000E+00  0.00000000E+00  0.00000000E+00
  0.00000000E+00  0.00000000E+00  0.00000000E+00
  0.00000000E+00  0.00000000E+00  0.00000000E+00
  0.00000000E+00  0.00000000E+00  0.00000000E+00
  0.00000000E+00  0.00000000E+00  0.00000000E+00
  0.00000000E+00  0.00000000E+00  0.00000000E+00
  0.00000000E+00  0.00000000E+00  0.00000000E+00
  0.00000000E+00  0.00000000E+00  0.00000000E+00
  0.00000000E+00  0.00000000E+00  0.00000000E+00
  0.00000000E+00  0.00000000E+00  0.00000000E+00
  0.00000000E+00  0.00000000E+00  0.00000000E+00
  0.00000000E+00  0.00000000E+00  0.00000000E+00
  0.00000000E+00  0.00000000E+00  0.00000000E+00
  0.00000000E+00  0.00000000E+00  0.00000000E+00
  0.00000000E+00  0.00000000E+00  0.00000000E+00
  0.00000000E+00  0.00000000E+00  0.00000000E+00
  0.00000000E+00  0.00000000E+00  0.00000000E+00
  0.00000000E+00  0.00000000E+00  0.00000000E+00
  0.00000000E+00  0.00000000E+00  0.00000000E+00
  0.00000000E+00  0.00000000E+00  0.00000000E+00
  0.00000000E+00  0.00000000E+00  0.00000000E+00
  0.00000000E+00  0.00000000E+00  0.00000000E+00
  0.00000000E+00  0.00000000E+00  0.00000000E+00
  0.00000000E+00  0.00000000E+00  0.00000000E+00
  0.00000000E+00  0.00000000E+00  0.00000000E+00
  0.00000000E+00  0.00000000E+00  0.00000000E+00
  0.00000000E+00  0.00000000E+00  0.00000000E+00
  0.00000000E+00  0.00000000E+00  0.00000000E+00
  0.00000000E+00  0.00000000E+00  0.00000000E+00
  0.00000000E+00  0.00000000E+00  0.00000000E+00
  0.00000000E+00  0.00000000E+00  0.00000000E+00
  0.00000000E+00  0.00000000E+00  0.00000000E+00
  0.00000000E+00  0.00000000E+00  0.00000000E+00
  0.00000000E+00  0.00000000E+00  0.00000000E+00
  0.00000000E+00  0.00000000E+00  0.00000000E+00
  0.00000000E+00  0.00000000E+00  0.00000000E+00
  0.00000000E+00  0.00000000E+00  0.00000000E+00
  0.00000000E+00  0.00000000E+00  0.00000000E+00
  0.00000000E+00  0.00000000E+00  0.00000000E+00
  0.00000000E+00  0.00000000E+00  0.00000000E+00
  0.00000000E+00  0.00000000E+00  0.00000000E+00
  0.00000000E+00  0.00000000E+00  0.00000000E+00
  0.00000000E+00  0.00000000E+00  0.00000000E+00
  0.00000000E+00  0.00000000E+00  0.00000000E+00
  0.00000000E+00  0.00000000E+00  0.00000000E+00
  0.00000000E+00  0.00000000E+00  0.00000000E+00
  0.00000000E+00  0.00000000E+00  0.00000000E+00
  0.00000000E+00  0.00000000E+00  0.00000000E+00
  0.00000000E+00  0.00000000E+00  0.00000000E+00
  0.00000000E+00  0.00000000E+00  0.00000000E+00
  0.00000000E+00  0.00000000E+00  0.00000000E+00
  0.00000000E+00  0.00000000E+00  0.00000000E+00
  0.00000000E+00  0.00000000E+00  0.00000000E+00
  0.00000000E+00  0.00000000E+00  0.00000000E+00
  0.00000000E+00  0.00000000E+00  0.00000000E+00
  0.00000000E+00  0.00000000E+00  0.00000000E+00
  0.00000000E+00  0.00000000E+00  0.00000000E+00
  0.00000000E+00  0.00000000E+00  0.00000000E+00
  0.00000000E+00  0.00000000E+00  0.00000000E+00
  0.00000000E+00  0.00000000E+00  0.00000000E+00
  0.00000000E+00  0.00000000E+00  0.00000000E+00
  0.00000000E+00  0.00000000E+00  0.00000000E+00
  0.00000000E+00  0.00000000E+00  0.00000000E+00
  0.00000000E+00  0.00000000E+00  0.00000000E+00
  0.00000000E+00  0.00000000E+00  0.00000000E+00
  0.00000000E+00  0.00000000E+00  0.00000000E+00
  0.00000000E+00  0.00000000E+00  0.00000000E+00
  0.00000000E+00  0.00000000E+00  0.00000000E+00
  0.00000000E+00  0.00000000E+00  0.00000000E+00
  0.00000000E+00  0.00000000E+00  0.00000000E+00
  0.00000000E+00  0.00000000E+00  0.00000000E+00
  0.00000000E+00  0.00000000E+00  0.00000000E+00
  0.00000000E+00  0.00000000E+00  0.00000000E+00
  0.00000000E+00  0.00000000E+00  0.00000000E+00
  0.00000000E+00  0.00000000E+00  0.00000000E+00
  0.00000000E+00  0.00000000E+00  0.00000000E+00
  0.00000000E+00  0.00000000E+00  0.00000000E+00
  0.00000000E+00  0.00000000E+00  0.00000000E+00
  0.00000000E+00  0.00000000E+00  0.00000000E+00
  0.00000000E+00  0.00000000E+00  0.00000000E+00
  0.00000000E+00  0.00000000E+00  0.00000000E+00
  0.00000000E+00  0.00000000E+00  0.00000000E+00
  0.00000000E+00  0.00000000E+00  0.00000000E+00
  0.00000000E+00  0.00000000E+00  0.00000000E+00
  0.00000000E+00  0.00000000E+00  0.00000000E+00
  0.00000000E+00  0.00000000E+00  0.00000000E+00
  0.00000000E+00  0.00000000E+00  0.00000000E+00
  0.00000000E+00  0.00000000E+00  0.00000000E+00
  0.00000000E+00  0.00000000E+00  0.00000000E+00
  0.00000000E+00  0.00000000E+00  0.00000000E+00
  0.00000000E+00  0.00000000E+00  0.00000000E+00
  0.00000000E+00  0.00000000E+00  0.00000000E+00
  0.00000000E+00  0.00000000E+00  0.00000000E+00
  0.00000000E+00  0.00000000E+00  0.00000000E+00
  0.00000000E+00  0.00000000E+00  0.00000000E+00
  0.00000000E+00  0.00000000E+00  0.00000000E+00
  0.00000000E+00  0.00000000E+00  0.00000000E+00
  0.00000000E+00  0.00000000E+00  0.00000000E+00
  0.00000000E+00  0.00000000E+00  0.00000000E+00
  0.00000000E+00  0.00000000E+00  0.00000000E+00
  0.00000000E+00  0.00000000E+00  0.00000000E+00
  0.00000000E+00  0.00000000E+00  0.00000000E+00
  0.00000000E+00  0.00000000E+00  0.00000000E+00
  0.00000000E+00  0.00000000E+00  0.00000000E+00
  0.00000000E+00  0.00000000E+00  0.00000000E+00
  0.00000000E+00  0.00000000E+00  0.00000000E+00
  0.00000000E+00  0.00000000E+00  0.00000000E+00
  0.00000000E+00  0.00000000E+00  0.00000000E+00
  0.00000000E+00  0.00000000E+00  0.00000000E+00
  0.00000000E+00  0.00000000E+00  0.00000000E+00
  0.00000000E+00  0.00000000E+00  0.00000000E+00
