supercell of natacl6_p21c.cif           
   1.00000000000000     
    12.8086700406632197    0.0000004227264436   -0.0315492974735766
     0.0000004651105324   13.6960863482870359   -0.0000019106395650
    -0.3327533513840475   -0.0000026420200669   18.8435734257652570
   Na   Ta   Cl
    15    16    95
Direct
  0.4233874710811776  0.0911135422507101  0.7514818491194148
  0.0977443906243352  0.3617245457743152  0.7580101384476592
  0.1048820179472330  0.4041126965940336  0.2529906027298381
  0.3946835462971734  0.1548600316981847  0.2465100587447182
  0.6083685717222664  0.3424864578245845  0.7509498260334411
  0.6049983253278057  0.4046179031170212  0.2523592961167012
  0.8955301124135246  0.1540734756596649  0.2468418965202019
  0.3958258019125580  0.5930568232840727  0.7451793161135996
  0.1030419490399836  0.8384379338142978  0.7591940720610992
  0.1049821206426671  0.9050870361191201  0.2524367309753686
  0.3945458975723639  0.6548494703885197  0.2465393540040139
  0.8931928422386122  0.5991166489925490  0.7513303427156117
  0.6127849687070750  0.8455927777620005  0.7542001006287862
  0.6044818519656516  0.9050435680833644  0.2525935723158241
  0.8951098443920529  0.6548307166731320  0.2466467603010614
  0.1354217917035356  0.1414173553435631  0.6397727186628828
  0.3710439480613843  0.3919746651099913  0.8853006850323837
  0.3720395433261388  0.3580858121664363  0.3849281439706473
  0.1277953595691770  0.1077821093828675  0.1145603966447268
  0.6310984816493672  0.1402296899396376  0.6160323015483442
  0.8713840965924788  0.3910403486108436  0.8850616312740200
  0.8715208594616755  0.3574999245503889  0.3852088168740764
  0.6286242007846354  0.1078750287357551  0.1149890550069372
  0.1284451578179855  0.6415882130535735  0.6145862914079956
  0.3714267111132656  0.8910488139015058  0.8858807766685644
  0.3717348568930632  0.8583054281931481  0.3846734985933011
  0.1279340727018763  0.6082212018523023  0.1150673691240200
  0.6277590744197710  0.6417671976728130  0.6149972239669523
  0.8725470278500538  0.8977892986928921  0.8805637347264650
  0.8710778011608937  0.8581273649530772  0.3841678974032021
  0.6285750933888821  0.6083433612990632  0.1146732774354362
  0.1978967430244012  0.1552198945454464  0.7532282201364779
  0.3073840710797100  0.4035710053384562  0.7594215305451684
  0.3109530428487659  0.3432767006439263  0.2596553647120601
  0.1889724064958571  0.0930846677006940  0.2401372304261429
  0.2678860478591147  0.0554625645219318  0.5861808667373936
  0.2211286612800265  0.3019997556952347  0.9093800826992577
  0.2226305937584954  0.4485345722927079  0.4086413552034927
  0.2771165136736329  0.1983790971435724  0.0912358775592566
  0.0370177108966843  0.4954350746009837  0.6537337462581760
  0.4601905571296712  0.2449721590982890  0.8468382244912149
  0.4607985660433442  0.0048768565770274  0.3458783634245748
  0.0387435317549603  0.2543039723027505  0.1544240705043123
  0.4436878192916325  0.3742788094341591  0.9968887264101980
  0.4438948683712169  0.3757673598962938  0.4969977543843456
  0.0550498445154659  0.1261527237022904  0.0030237687000536
  0.4740545479386071  0.2306495646420643  0.6550477396648020
  0.0223204367136276  0.4900431458763208  0.8500891218527471
  0.0242263046382050  0.2657923601975796  0.3471187154564603
  0.4759870046397552  0.0171184428194309  0.1544874190955170
  0.1958702872588773  0.2812177286915016  0.5850517400168442
  0.2945913591368523  0.0414097979991226  0.9108878566895555
  0.2917562812531997  0.2090120034025134  0.4089695874191577
  0.2075483226033441  0.4591019471574285  0.0910856318196878
  0.6891816300642120  0.1524391486055166  0.7385366775370699
  0.8126403074300654  0.4098943448889329  0.7589959957574877
  0.8114270898258198  0.3425456012975658  0.2599515814431967
  0.6891588219109224  0.0932715901623737  0.2405022317197805
  0.7766187229891273  0.0503256579768276  0.5865984227604599
  0.7219464587613302  0.3004574816553998  0.9077264954002899
  0.7229509937049130  0.4485541917320717  0.4090374515802040
  0.7774102965145389  0.1986463889502446  0.0914824640771101
  0.5383029070719729  0.4945775719542453  0.6538318503275349
  0.9620265940862396  0.2504617449088755  0.8419163193317871
  0.9614133705728278  0.0054605934824679  0.3471801884962815
  0.5389043640982862  0.2545100277904666  0.1544376709367654
  0.5516482948806143  0.1256321458346292  0.5049888517429082
  0.9437973510015709  0.3714798018052790  0.9969078482303502
  0.9448952107852264  0.3753231445142404  0.4971897617049734
  0.5549593390567082  0.1264877278580911  0.0035721566268307
  0.9766270227049745  0.2230153105088277  0.6519184178615660
  0.5223561696360761  0.4810820549117309  0.8439809194528607
  0.5240235543145957  0.2671971575722196  0.3458954911345629
  0.9757159650034808  0.0168784076028032  0.1541195123401238
  0.7070746548355018  0.2912923910485077  0.5915367742812023
  0.7929897147479608  0.0434784737378493  0.9098218917155094
  0.7914771834628453  0.2090218456939255  0.4095819855651541
  0.7076769957275033  0.4590856458203803  0.0909058279500741
  0.1906287815374839  0.6545875818284443  0.7398888128990890
  0.3089979689256097  0.9129609242808172  0.7606768419630114
  0.3110362731849463  0.8433984530687368  0.2593753529624934
  0.1887479099952571  0.5931241224762616  0.2406347901450232
  0.2765176510504688  0.5493999661890143  0.5907689926385729
  0.2215599311820569  0.8014232353160722  0.9087760714850006
  0.2217520636372825  0.9484726897994022  0.4081128992039496
  0.2774994975024896  0.6982518791986934  0.0915313930973269
  0.0390255040431597  0.9976875041278177  0.6404736003695248
  0.4578531193700996  0.7455586848334903  0.8439409293455213
  0.4612309961847956  0.5045574900298178  0.3459764489943993
  0.0388996006567979  0.7547246080075922  0.1542137922887505
  0.0554962290173435  0.6235565045720648  0.5029561972243712
  0.4429723313979679  0.8718017890042589  0.9976732355499252
  0.4437779978518606  0.8767116259501790  0.4966267814066825
  0.0548776547864449  0.6267293221562156  0.0037655001737846
  0.4756856002293262  0.7328895539153990  0.6544337426296352
  0.0266316332882113  0.9841473432443237  0.8430238842173026
  0.0237214069559712  0.7674271509021082  0.3448249904067993
  0.4761232415363850  0.5174226627510450  0.1543437762067938
  0.2091935651662737  0.7898080132369643  0.5907520240108468
  0.2920858592399753  0.5411635815583509  0.9082054243529143
  0.2924387273821409  0.7092404240259711  0.4088922152099670
  0.2075439217816140  0.9589183281782070  0.0908497163924622
  0.6872948932070670  0.6556728994032284  0.7403795941990978
  0.8152468999449738  0.9105401163683382  0.7571945785405561
  0.8112982479001118  0.8445199449470593  0.2589575120204515
  0.6892961024882283  0.5932364755176920  0.2402679461805022
  0.7768154129075384  0.5514228595328987  0.5911703314216439
  0.7235687709787797  0.8039785152037453  0.9048004170181656
  0.7221974096936847  0.9483116239621125  0.4084052697752725
  0.7775008597684945  0.6987628249968125  0.0910349844940583
  0.5395726319201088  0.9912082032027953  0.6521991269654137
  0.9606046011261995  0.7450898385794247  0.8454011842755662
  0.9613414246594658  0.5036934557391959  0.3459288313239739
  0.5390902848921755  0.7545896555160923  0.1542907725375358
  0.5542249704110489  0.6234979452161582  0.5033324220283006
  0.9453763564494011  0.8745816867873017  0.9930704243693214
  0.9446765789760931  0.8745011428994758  0.4960241114856956
  0.5553494763892886  0.6264232590658949  0.0030841459687139
  0.9771876662161887  0.7327842275753440  0.6543275557937420
  0.5276808368257733  0.9788976369054723  0.8490970508563436
  0.5241223421015064  0.7675211627883627  0.3457420924872139
  0.9757606370071272  0.5169778721996252  0.1545044125170634
  0.7075856766672217  0.7903211361625821  0.5907884947801989
  0.7885956535334913  0.5391312860693276  0.9093161991402070
  0.7919791319872687  0.7089961165165164  0.4081784280920644
  0.7077954236887223  0.9591913718473961  0.0907757564351073
 
  0.00000000E+00  0.00000000E+00  0.00000000E+00
  0.00000000E+00  0.00000000E+00  0.00000000E+00
  0.00000000E+00  0.00000000E+00  0.00000000E+00
  0.00000000E+00  0.00000000E+00  0.00000000E+00
  0.00000000E+00  0.00000000E+00  0.00000000E+00
  0.00000000E+00  0.00000000E+00  0.00000000E+00
  0.00000000E+00  0.00000000E+00  0.00000000E+00
  0.00000000E+00  0.00000000E+00  0.00000000E+00
  0.00000000E+00  0.00000000E+00  0.00000000E+00
  0.00000000E+00  0.00000000E+00  0.00000000E+00
  0.00000000E+00  0.00000000E+00  0.00000000E+00
  0.00000000E+00  0.00000000E+00  0.00000000E+00
  0.00000000E+00  0.00000000E+00  0.00000000E+00
  0.00000000E+00  0.00000000E+00  0.00000000E+00
  0.00000000E+00  0.00000000E+00  0.00000000E+00
  0.00000000E+00  0.00000000E+00  0.00000000E+00
  0.00000000E+00  0.00000000E+00  0.00000000E+00
  0.00000000E+00  0.00000000E+00  0.00000000E+00
  0.00000000E+00  0.00000000E+00  0.00000000E+00
  0.00000000E+00  0.00000000E+00  0.00000000E+00
  0.00000000E+00  0.00000000E+00  0.00000000E+00
  0.00000000E+00  0.00000000E+00  0.00000000E+00
  0.00000000E+00  0.00000000E+00  0.00000000E+00
  0.00000000E+00  0.00000000E+00  0.00000000E+00
  0.00000000E+00  0.00000000E+00  0.00000000E+00
  0.00000000E+00  0.00000000E+00  0.00000000E+00
  0.00000000E+00  0.00000000E+00  0.00000000E+00
  0.00000000E+00  0.00000000E+00  0.00000000E+00
  0.00000000E+00  0.00000000E+00  0.00000000E+00
  0.00000000E+00  0.00000000E+00  0.00000000E+00
  0.00000000E+00  0.00000000E+00  0.00000000E+00
  0.00000000E+00  0.00000000E+00  0.00000000E+00
  0.00000000E+00  0.00000000E+00  0.00000000E+00
  0.00000000E+00  0.00000000E+00  0.00000000E+00
  0.00000000E+00  0.00000000E+00  0.00000000E+00
  0.00000000E+00  0.00000000E+00  0.00000000E+00
  0.00000000E+00  0.00000000E+00  0.00000000E+00
  0.00000000E+00  0.00000000E+00  0.00000000E+00
  0.00000000E+00  0.00000000E+00  0.00000000E+00
  0.00000000E+00  0.00000000E+00  0.00000000E+00
  0.00000000E+00  0.00000000E+00  0.00000000E+00
  0.00000000E+00  0.00000000E+00  0.00000000E+00
  0.00000000E+00  0.00000000E+00  0.00000000E+00
  0.00000000E+00  0.00000000E+00  0.00000000E+00
  0.00000000E+00  0.00000000E+00  0.00000000E+00
  0.00000000E+00  0.00000000E+00  0.00000000E+00
  0.00000000E+00  0.00000000E+00  0.00000000E+00
  0.00000000E+00  0.00000000E+00  0.00000000E+00
  0.00000000E+00  0.00000000E+00  0.00000000E+00
  0.00000000E+00  0.00000000E+00  0.00000000E+00
  0.00000000E+00  0.00000000E+00  0.00000000E+00
  0.00000000E+00  0.00000000E+00  0.00000000E+00
  0.00000000E+00  0.00000000E+00  0.00000000E+00
  0.00000000E+00  0.00000000E+00  0.00000000E+00
  0.00000000E+00  0.00000000E+00  0.00000000E+00
  0.00000000E+00  0.00000000E+00  0.00000000E+00
  0.00000000E+00  0.00000000E+00  0.00000000E+00
  0.00000000E+00  0.00000000E+00  0.00000000E+00
  0.00000000E+00  0.00000000E+00  0.00000000E+00
  0.00000000E+00  0.00000000E+00  0.00000000E+00
  0.00000000E+00  0.00000000E+00  0.00000000E+00
  0.00000000E+00  0.00000000E+00  0.00000000E+00
  0.00000000E+00  0.00000000E+00  0.00000000E+00
  0.00000000E+00  0.00000000E+00  0.00000000E+00
  0.00000000E+00  0.00000000E+00  0.00000000E+00
  0.00000000E+00  0.00000000E+00  0.00000000E+00
  0.00000000E+00  0.00000000E+00  0.00000000E+00
  0.00000000E+00  0.00000000E+00  0.00000000E+00
  0.00000000E+00  0.00000000E+00  0.00000000E+00
  0.00000000E+00  0.00000000E+00  0.00000000E+00
  0.00000000E+00  0.00000000E+00  0.00000000E+00
  0.00000000E+00  0.00000000E+00  0.00000000E+00
  0.00000000E+00  0.00000000E+00  0.00000000E+00
  0.00000000E+00  0.00000000E+00  0.00000000E+00
  0.00000000E+00  0.00000000E+00  0.00000000E+00
  0.00000000E+00  0.00000000E+00  0.00000000E+00
  0.00000000E+00  0.00000000E+00  0.00000000E+00
  0.00000000E+00  0.00000000E+00  0.00000000E+00
  0.00000000E+00  0.00000000E+00  0.00000000E+00
  0.00000000E+00  0.00000000E+00  0.00000000E+00
  0.00000000E+00  0.00000000E+00  0.00000000E+00
  0.00000000E+00  0.00000000E+00  0.00000000E+00
  0.00000000E+00  0.00000000E+00  0.00000000E+00
  0.00000000E+00  0.00000000E+00  0.00000000E+00
  0.00000000E+00  0.00000000E+00  0.00000000E+00
  0.00000000E+00  0.00000000E+00  0.00000000E+00
  0.00000000E+00  0.00000000E+00  0.00000000E+00
  0.00000000E+00  0.00000000E+00  0.00000000E+00
  0.00000000E+00  0.00000000E+00  0.00000000E+00
  0.00000000E+00  0.00000000E+00  0.00000000E+00
  0.00000000E+00  0.00000000E+00  0.00000000E+00
  0.00000000E+00  0.00000000E+00  0.00000000E+00
  0.00000000E+00  0.00000000E+00  0.00000000E+00
  0.00000000E+00  0.00000000E+00  0.00000000E+00
  0.00000000E+00  0.00000000E+00  0.00000000E+00
  0.00000000E+00  0.00000000E+00  0.00000000E+00
  0.00000000E+00  0.00000000E+00  0.00000000E+00
  0.00000000E+00  0.00000000E+00  0.00000000E+00
  0.00000000E+00  0.00000000E+00  0.00000000E+00
  0.00000000E+00  0.00000000E+00  0.00000000E+00
  0.00000000E+00  0.00000000E+00  0.00000000E+00
  0.00000000E+00  0.00000000E+00  0.00000000E+00
  0.00000000E+00  0.00000000E+00  0.00000000E+00
  0.00000000E+00  0.00000000E+00  0.00000000E+00
  0.00000000E+00  0.00000000E+00  0.00000000E+00
  0.00000000E+00  0.00000000E+00  0.00000000E+00
  0.00000000E+00  0.00000000E+00  0.00000000E+00
  0.00000000E+00  0.00000000E+00  0.00000000E+00
  0.00000000E+00  0.00000000E+00  0.00000000E+00
  0.00000000E+00  0.00000000E+00  0.00000000E+00
  0.00000000E+00  0.00000000E+00  0.00000000E+00
  0.00000000E+00  0.00000000E+00  0.00000000E+00
  0.00000000E+00  0.00000000E+00  0.00000000E+00
  0.00000000E+00  0.00000000E+00  0.00000000E+00
  0.00000000E+00  0.00000000E+00  0.00000000E+00
  0.00000000E+00  0.00000000E+00  0.00000000E+00
  0.00000000E+00  0.00000000E+00  0.00000000E+00
  0.00000000E+00  0.00000000E+00  0.00000000E+00
  0.00000000E+00  0.00000000E+00  0.00000000E+00
  0.00000000E+00  0.00000000E+00  0.00000000E+00
  0.00000000E+00  0.00000000E+00  0.00000000E+00
  0.00000000E+00  0.00000000E+00  0.00000000E+00
  0.00000000E+00  0.00000000E+00  0.00000000E+00
  0.00000000E+00  0.00000000E+00  0.00000000E+00
  0.00000000E+00  0.00000000E+00  0.00000000E+00
  0.00000000E+00  0.00000000E+00  0.00000000E+00
