supercell of natacl6_p21c.cif           
   1.00000000000000     
    12.8086700406632197    0.0000004227264436   -0.0315492974735766
     0.0000004651105324   13.6960863482870359   -0.0000019106395650
    -0.3327533513840475   -0.0000026420200669   18.8435734257652570
   Na   Mo   Ta   Cl
    16     1    15    96
Direct
  0.4048090530673107  0.0961557713541552  0.7541357685942316
  0.1081729214175127  0.3499056875571895  0.7609611716324949
  0.1043381462609858  0.4040413655630317  0.2523431503327487
  0.3948526679540194  0.1544028506189292  0.2460276062177300
  0.8846944854707104  0.0980965872276514  0.7571012510582662
  0.6047963672299304  0.3476721912122969  0.7519467171071099
  0.6046446114072026  0.4039547140872628  0.2520900003749205
  0.8951615854744404  0.1540281673886952  0.2463530910772818
  0.3961784298060067  0.5936736585276137  0.7458426753765011
  0.1102656160612767  0.8362521932206377  0.7608158851242806
  0.1038873229688093  0.9049230952721814  0.2521310583653857
  0.3941409510147622  0.6557209757423124  0.2462138643424368
  0.8933516223246372  0.5946829355985201  0.7455357068682531
  0.6051464350079385  0.8436295185077256  0.7520609872383091
  0.6046392868105670  0.9049087230723529  0.2524627330586569
  0.8953402331279179  0.6550368687769748  0.2466521084720839
  0.1280771807188117  0.1392395338893806  0.6123370743928476
  0.3720504744647926  0.3921210375671933  0.8852850743640772
  0.3716549080503455  0.3589761187972300  0.3853395205926091
  0.1282828434963292  0.1079630024874376  0.1149670412295336
  0.6261357458340271  0.1412869317622309  0.6142677458937982
  0.8708109602853185  0.3933866552704828  0.8852212142032982
  0.8718155955875275  0.3574280693941674  0.3853117850377217
  0.6284951195082726  0.1080371335418633  0.1149950686420524
  0.1288577986591193  0.6405560547397045  0.6148674590050334
  0.3722503765731773  0.8919088682556691  0.8853676517705154
  0.3720821223534330  0.8584988279340706  0.3853634087554099
  0.1281908278134125  0.6079713512320453  0.1152813407985320
  0.6282490472888895  0.6417800446799617  0.6148876858092791
  0.8720050302633737  0.8905662566901782  0.8845538539593747
  0.8723120644829976  0.8589528616171762  0.3853472396493487
  0.6282629968875142  0.6081547013112782  0.1152424688393623
  0.1902740969014189  0.1558833383052658  0.7339435362084785
  0.3126933429857885  0.4040147128872889  0.7582056017606504
  0.3099530952723057  0.3424178088303549  0.2608245748501830
  0.1886810118915534  0.0932976424046359  0.2403971640225677
  0.2722955205426132  0.0495234384298868  0.5886795074798954
  0.2224202572038791  0.3001827509388306  0.9067109577155463
  0.2221214394417714  0.4488476491216602  0.4094492663448364
  0.2773306411021537  0.1986390633195754  0.0913222794389128
  0.0411201871095344  0.4924371134521692  0.6542668389764970
  0.4637153908146772  0.2462926843240112  0.8467410913634126
  0.4606798534026382  0.0052603782438752  0.3463496390271814
  0.0384913571222540  0.2543793383444850  0.1540863329905946
  0.0584283421321814  0.1247349793225894  0.5023729926616767
  0.4426981492130295  0.3737446141864211  0.9970472764639737
  0.4439354377356821  0.3766024140576008  0.4976340791527818
  0.0554412532273858  0.1260394419151325  0.0030538177222326
  0.4708084797804943  0.2297077263691349  0.6524394471773931
  0.0218509295915581  0.4873298717627392  0.8472514480957400
  0.0245776246301901  0.2658848043870208  0.3464486451684010
  0.4761278045837187  0.0168793927428013  0.1539930076145666
  0.2079170187421298  0.2837263140972013  0.5880420695709034
  0.2938959448858256  0.0421593243776712  0.9077904911338166
  0.2916609560782888  0.2094720519462498  0.4112928996973437
  0.2077765893011048  0.4590634392611150  0.0909752416780307
  0.6825426514656456  0.1573753283315753  0.7408094442471125
  0.8124967165696901  0.4060942401270040  0.7589288241663752
  0.8113750401957347  0.3428687762752034  0.2606875659517911
  0.6887574541534036  0.0934863622738291  0.2404564107203981
  0.7779031572864312  0.0528079915579482  0.5931634684815208
  0.7240016375726483  0.2994822235377086  0.9073778391090954
  0.7237906360219668  0.4477836623493303  0.4107884769472889
  0.7775199510329429  0.1987058732587315  0.0913861233007083
  0.5388957281431885  0.4946885238478131  0.6538840389309897
  0.9645876952246013  0.2477591323049140  0.8434497537433145
  0.9620699567268360  0.0060463881700983  0.3468700670872451
  0.5386007726402084  0.2544995799668825  0.1541235187553838
  0.5565649914724418  0.1232294792853352  0.5020349770909576
  0.9453645187806785  0.3715042410599523  0.9957213595734729
  0.9464231497770754  0.3729227043258803  0.4977484972111128
  0.5556005981305390  0.1264405258355552  0.0031852167428497
  0.9802806990957791  0.2280319730739819  0.6504568173507721
  0.5231427976895020  0.4835726986399678  0.8458364128695450
  0.5231997510655333  0.2671822873687972  0.3465660261820958
  0.9758573561503212  0.0168372889934432  0.1539910998450722
  0.7049362991341042  0.2911662394901242  0.5918078684102781
  0.7942153971037627  0.0414283046899726  0.9069092685898639
  0.7925450597074715  0.2081367987632134  0.4096954925899539
  0.7077588682605906  0.4591669940554368  0.0910780004601293
  0.1909218693109551  0.6526242062675038  0.7402749645668152
  0.3113077986045738  0.9105542739945562  0.7588755951557147
  0.3099420244892954  0.8444792307415128  0.2607101944701924
  0.1884852060442412  0.5930836139373028  0.2406824389233790
  0.2783007844282110  0.5512456193467870  0.5896833745926529
  0.2216535812784315  0.8024561327194633  0.9078757501458270
  0.2225827219775738  0.9495839627828886  0.4106182141445487
  0.2773392897649387  0.6984420310535739  0.0915734946948135
  0.0411124962866367  0.9978693943198067  0.6497241754678100
  0.4584539648492694  0.7453298304300660  0.8448602488346140
  0.4608097047350199  0.5047460107555324  0.3465143321284714
  0.0385840414433005  0.7545148009080123  0.1542152391943432
  0.0541126510329661  0.6234276180804841  0.5040104863043879
  0.4424724556841326  0.8737311290464689  0.9973347824100429
  0.4446825271624419  0.8767733376027422  0.4974708653270099
  0.0550848628855007  0.6264805538011231  0.0035809904705602
  0.4757589836971476  0.7323330614725378  0.6542468308344525
  0.0247598915659850  0.9815333924337111  0.8421432652240952
  0.0245612997735094  0.7682753842208143  0.3464334349684037
  0.4758951128842810  0.5171849446444696  0.1544974258854310
  0.2080584224056992  0.7903450833485977  0.5916438055735966
  0.2900418545895960  0.5398996509631075  0.9078082249107950
  0.2921853068333817  0.7099047752432526  0.4096899125695757
  0.2079168798253619  0.9591311678166150  0.0909422222187004
  0.6881583034112850  0.6557106502593726  0.7407522369829778
  0.8119187445085245  0.9053096939458385  0.7585973744131280
  0.8116968737347463  0.8446130358026380  0.2606280523898405
  0.6891021457416642  0.5931966647691098  0.2406775914439194
  0.7779455921234941  0.5515055209189299  0.5916227085979315
  0.7227006346033278  0.8022267544183279  0.9094407208300055
  0.7231607428421611  0.9491774754361373  0.4095601146728711
  0.7773042314060419  0.6987066532195314  0.0914679402503040
  0.5379825453855176  0.9942418973499443  0.6529876491335216
  0.9596569714488652  0.7430756419272058  0.8467799415757398
  0.9616241444427658  0.5035846428209965  0.3472609316601023
  0.5387869575419515  0.7546432498649551  0.1544447663734516
  0.5553432966584637  0.6234557806868892  0.5033658521337117
  0.9471889438987091  0.8757737876885585  0.9954519116395915
  0.9462483574224905  0.8786616089526191  0.4975556295974926
  0.5551334547504254  0.6264956824764241  0.0035149091182589
  0.9780965995181177  0.7322607345670633  0.6559604400808396
  0.5271617276443905  0.9799337502137533  0.8470982474574100
  0.5240749100335833  0.7679556036019761  0.3464384664725273
  0.9757263522853634  0.5168062811988463  0.1543197170828208
  0.7077402341207986  0.7907152820879091  0.5913208982246658
  0.7882588289952253  0.5397348922678447  0.9096626676983277
  0.7939293099146383  0.7102274739740935  0.4109281436805148
  0.7081662069922317  0.9592130700292714  0.0908351537199152
 
  0.00000000E+00  0.00000000E+00  0.00000000E+00
  0.00000000E+00  0.00000000E+00  0.00000000E+00
  0.00000000E+00  0.00000000E+00  0.00000000E+00
  0.00000000E+00  0.00000000E+00  0.00000000E+00
  0.00000000E+00  0.00000000E+00  0.00000000E+00
  0.00000000E+00  0.00000000E+00  0.00000000E+00
  0.00000000E+00  0.00000000E+00  0.00000000E+00
  0.00000000E+00  0.00000000E+00  0.00000000E+00
  0.00000000E+00  0.00000000E+00  0.00000000E+00
  0.00000000E+00  0.00000000E+00  0.00000000E+00
  0.00000000E+00  0.00000000E+00  0.00000000E+00
  0.00000000E+00  0.00000000E+00  0.00000000E+00
  0.00000000E+00  0.00000000E+00  0.00000000E+00
  0.00000000E+00  0.00000000E+00  0.00000000E+00
  0.00000000E+00  0.00000000E+00  0.00000000E+00
  0.00000000E+00  0.00000000E+00  0.00000000E+00
  0.00000000E+00  0.00000000E+00  0.00000000E+00
  0.00000000E+00  0.00000000E+00  0.00000000E+00
  0.00000000E+00  0.00000000E+00  0.00000000E+00
  0.00000000E+00  0.00000000E+00  0.00000000E+00
  0.00000000E+00  0.00000000E+00  0.00000000E+00
  0.00000000E+00  0.00000000E+00  0.00000000E+00
  0.00000000E+00  0.00000000E+00  0.00000000E+00
  0.00000000E+00  0.00000000E+00  0.00000000E+00
  0.00000000E+00  0.00000000E+00  0.00000000E+00
  0.00000000E+00  0.00000000E+00  0.00000000E+00
  0.00000000E+00  0.00000000E+00  0.00000000E+00
  0.00000000E+00  0.00000000E+00  0.00000000E+00
  0.00000000E+00  0.00000000E+00  0.00000000E+00
  0.00000000E+00  0.00000000E+00  0.00000000E+00
  0.00000000E+00  0.00000000E+00  0.00000000E+00
  0.00000000E+00  0.00000000E+00  0.00000000E+00
  0.00000000E+00  0.00000000E+00  0.00000000E+00
  0.00000000E+00  0.00000000E+00  0.00000000E+00
  0.00000000E+00  0.00000000E+00  0.00000000E+00
  0.00000000E+00  0.00000000E+00  0.00000000E+00
  0.00000000E+00  0.00000000E+00  0.00000000E+00
  0.00000000E+00  0.00000000E+00  0.00000000E+00
  0.00000000E+00  0.00000000E+00  0.00000000E+00
  0.00000000E+00  0.00000000E+00  0.00000000E+00
  0.00000000E+00  0.00000000E+00  0.00000000E+00
  0.00000000E+00  0.00000000E+00  0.00000000E+00
  0.00000000E+00  0.00000000E+00  0.00000000E+00
  0.00000000E+00  0.00000000E+00  0.00000000E+00
  0.00000000E+00  0.00000000E+00  0.00000000E+00
  0.00000000E+00  0.00000000E+00  0.00000000E+00
  0.00000000E+00  0.00000000E+00  0.00000000E+00
  0.00000000E+00  0.00000000E+00  0.00000000E+00
  0.00000000E+00  0.00000000E+00  0.00000000E+00
  0.00000000E+00  0.00000000E+00  0.00000000E+00
  0.00000000E+00  0.00000000E+00  0.00000000E+00
  0.00000000E+00  0.00000000E+00  0.00000000E+00
  0.00000000E+00  0.00000000E+00  0.00000000E+00
  0.00000000E+00  0.00000000E+00  0.00000000E+00
  0.00000000E+00  0.00000000E+00  0.00000000E+00
  0.00000000E+00  0.00000000E+00  0.00000000E+00
  0.00000000E+00  0.00000000E+00  0.00000000E+00
  0.00000000E+00  0.00000000E+00  0.00000000E+00
  0.00000000E+00  0.00000000E+00  0.00000000E+00
  0.00000000E+00  0.00000000E+00  0.00000000E+00
  0.00000000E+00  0.00000000E+00  0.00000000E+00
  0.00000000E+00  0.00000000E+00  0.00000000E+00
  0.00000000E+00  0.00000000E+00  0.00000000E+00
  0.00000000E+00  0.00000000E+00  0.00000000E+00
  0.00000000E+00  0.00000000E+00  0.00000000E+00
  0.00000000E+00  0.00000000E+00  0.00000000E+00
  0.00000000E+00  0.00000000E+00  0.00000000E+00
  0.00000000E+00  0.00000000E+00  0.00000000E+00
  0.00000000E+00  0.00000000E+00  0.00000000E+00
  0.00000000E+00  0.00000000E+00  0.00000000E+00
  0.00000000E+00  0.00000000E+00  0.00000000E+00
  0.00000000E+00  0.00000000E+00  0.00000000E+00
  0.00000000E+00  0.00000000E+00  0.00000000E+00
  0.00000000E+00  0.00000000E+00  0.00000000E+00
  0.00000000E+00  0.00000000E+00  0.00000000E+00
  0.00000000E+00  0.00000000E+00  0.00000000E+00
  0.00000000E+00  0.00000000E+00  0.00000000E+00
  0.00000000E+00  0.00000000E+00  0.00000000E+00
  0.00000000E+00  0.00000000E+00  0.00000000E+00
  0.00000000E+00  0.00000000E+00  0.00000000E+00
  0.00000000E+00  0.00000000E+00  0.00000000E+00
  0.00000000E+00  0.00000000E+00  0.00000000E+00
  0.00000000E+00  0.00000000E+00  0.00000000E+00
  0.00000000E+00  0.00000000E+00  0.00000000E+00
  0.00000000E+00  0.00000000E+00  0.00000000E+00
  0.00000000E+00  0.00000000E+00  0.00000000E+00
  0.00000000E+00  0.00000000E+00  0.00000000E+00
  0.00000000E+00  0.00000000E+00  0.00000000E+00
  0.00000000E+00  0.00000000E+00  0.00000000E+00
  0.00000000E+00  0.00000000E+00  0.00000000E+00
  0.00000000E+00  0.00000000E+00  0.00000000E+00
  0.00000000E+00  0.00000000E+00  0.00000000E+00
  0.00000000E+00  0.00000000E+00  0.00000000E+00
  0.00000000E+00  0.00000000E+00  0.00000000E+00
  0.00000000E+00  0.00000000E+00  0.00000000E+00
  0.00000000E+00  0.00000000E+00  0.00000000E+00
  0.00000000E+00  0.00000000E+00  0.00000000E+00
  0.00000000E+00  0.00000000E+00  0.00000000E+00
  0.00000000E+00  0.00000000E+00  0.00000000E+00
  0.00000000E+00  0.00000000E+00  0.00000000E+00
  0.00000000E+00  0.00000000E+00  0.00000000E+00
  0.00000000E+00  0.00000000E+00  0.00000000E+00
  0.00000000E+00  0.00000000E+00  0.00000000E+00
  0.00000000E+00  0.00000000E+00  0.00000000E+00
  0.00000000E+00  0.00000000E+00  0.00000000E+00
  0.00000000E+00  0.00000000E+00  0.00000000E+00
  0.00000000E+00  0.00000000E+00  0.00000000E+00
  0.00000000E+00  0.00000000E+00  0.00000000E+00
  0.00000000E+00  0.00000000E+00  0.00000000E+00
  0.00000000E+00  0.00000000E+00  0.00000000E+00
  0.00000000E+00  0.00000000E+00  0.00000000E+00
  0.00000000E+00  0.00000000E+00  0.00000000E+00
  0.00000000E+00  0.00000000E+00  0.00000000E+00
  0.00000000E+00  0.00000000E+00  0.00000000E+00
  0.00000000E+00  0.00000000E+00  0.00000000E+00
  0.00000000E+00  0.00000000E+00  0.00000000E+00
  0.00000000E+00  0.00000000E+00  0.00000000E+00
  0.00000000E+00  0.00000000E+00  0.00000000E+00
  0.00000000E+00  0.00000000E+00  0.00000000E+00
  0.00000000E+00  0.00000000E+00  0.00000000E+00
  0.00000000E+00  0.00000000E+00  0.00000000E+00
  0.00000000E+00  0.00000000E+00  0.00000000E+00
  0.00000000E+00  0.00000000E+00  0.00000000E+00
  0.00000000E+00  0.00000000E+00  0.00000000E+00
  0.00000000E+00  0.00000000E+00  0.00000000E+00
  0.00000000E+00  0.00000000E+00  0.00000000E+00
  0.00000000E+00  0.00000000E+00  0.00000000E+00
  0.00000000E+00  0.00000000E+00  0.00000000E+00
