supercell of natacl6_p21c.cif           
   1.00000000000000     
    12.8086700406632197    0.0000004227264436   -0.0315492974735766
     0.0000004651105324   13.6960863482870359   -0.0000019106395650
    -0.3327533513840475   -0.0000026420200669   18.8435734257652570
   Na   Mo   Ta   Cl
    16     1    15    96
Direct
  0.3951363561255334  0.0945385293557024  0.7459955008116026
  0.1047226772943688  0.3432764735366760  0.7520732901085267
  0.1050241791291526  0.4047391819659936  0.2528138045928827
  0.3949424875647125  0.1547998193552402  0.2471175668271215
  0.8949570728388281  0.0942322839744563  0.7469716268752578
  0.6052781489623555  0.3450900475023033  0.7528191289115611
  0.6050789687972582  0.4048235621574960  0.2527238023111025
  0.8949652766103000  0.1548187082963608  0.2471276227618304
  0.3947403653171762  0.5950321863203882  0.7471404826298809
  0.1054472802757616  0.8448935970999045  0.7526745228231420
  0.1050939071517973  0.9049405262916892  0.2527802865559750
  0.3948926330330238  0.6549891334926343  0.2472001399785029
  0.8950779501632127  0.5948117135655338  0.7472280170304089
  0.6048462764332641  0.8449953868069713  0.7528722653015976
  0.6049474401245405  0.9049096002102530  0.2527771680268600
  0.8949597427847351  0.6549121001189135  0.2471067449955271
  0.1281420329851599  0.1404500923091447  0.6163662990280301
  0.3718007919817126  0.3915103808503488  0.8848373929167579
  0.3718267814890552  0.3581696458206451  0.3851442365234803
  0.1281180729088831  0.1082420368695125  0.1149898378897021
  0.6285528578635038  0.1417468157640513  0.6149828742380237
  0.8721277750988179  0.3916383228323852  0.8849642175233683
  0.8720921556162295  0.3578605714197209  0.3853816867342914
  0.6281233103037138  0.1082474680167493  0.1149698108108979
  0.1280334275770230  0.6412990561492222  0.6150019175224060
  0.3719719967716131  0.8916725686582510  0.8850571099238849
  0.3718525490807849  0.8583661541052194  0.3851558412229110
  0.1281054870655396  0.6081842097376224  0.1149857908543908
  0.6281180204804073  0.6417707218956892  0.6150173131141301
  0.8718818723840585  0.8915830837910974  0.8850453218468814
  0.8720005188342270  0.8584208050982411  0.3852086635861127
  0.6281196940620362  0.6081861149809527  0.1150063366283476
  0.1887112698019990  0.1552462303306967  0.7404331533266841
  0.3106908936411301  0.4060644667530582  0.7593846182148667
  0.3108770453406606  0.3431761999798866  0.2597685089832993
  0.1890435008985634  0.0933774024016785  0.2404277612039110
  0.2750799391358214  0.0474568331016769  0.5953276374547585
  0.2226373243520783  0.3011484180441073  0.9086298476339820
  0.2226101347186145  0.4485729117076787  0.4088250734089200
  0.2772825562419428  0.1985963616214050  0.0912733415271916
  0.0389039990604161  0.4948729682380346  0.6542191452320765
  0.4611924401846039  0.2451156243514916  0.8456787785209272
  0.4611482218785596  0.0047507879786721  0.3457656535826885
  0.0388229495630981  0.2546791500749990  0.1543417511258696
  0.0570356479778340  0.1244819768893564  0.5059592342990911
  0.4447139902629331  0.3736614516472514  0.9965545776124927
  0.4448605666202141  0.3763247739520565  0.4967423367123232
  0.0550460025940325  0.1262980413073507  0.0034354224977520
  0.4761803046160438  0.2327482947695216  0.6542685597955753
  0.0245266645331981  0.4820144789089014  0.8453085722433329
  0.0244896606365401  0.2669245724764906  0.3460161656755716
  0.4757500443338145  0.0173795627374176  0.1543964646368678
  0.2101097666381193  0.2854537250305569  0.5903257580610202
  0.2925530004822932  0.0407954423022829  0.9090015748260569
  0.2922377250596000  0.2091811994738393  0.4095214959728821
  0.2074417307401077  0.4591382041857912  0.0909756063128953
  0.6889137501955531  0.1564272958875463  0.7404120688425380
  0.8111878223185585  0.4063027708507150  0.7595704730175186
  0.8112822296938944  0.3432251776585176  0.2599361048758055
  0.6890211385854101  0.0933695874455296  0.2404080592643325
  0.7776935524769613  0.0514790406716301  0.5911374282846751
  0.7226785909117623  0.3015067458315670  0.9087260171359048
  0.7230710551697683  0.4484734380051663  0.4091757260568158
  0.7773004834768074  0.1985936916265771  0.0912807658529218
  0.5388260627543744  0.4952889877048676  0.6542337342218971
  0.9610316921345046  0.2447993983854388  0.8462046430721770
  0.9614859626556367  0.0051102722589462  0.3462483139257913
  0.5388245586453735  0.2546958989550916  0.1542819691165960
  0.5549624491627867  0.1238421354116355  0.5034182203296353
  0.9448499676189570  0.3739493354664774  0.9967656374552263
  0.9453176553984335  0.3750512392888297  0.4970847436354546
  0.5551011357158444  0.1263066569632301  0.0033753952916271
  0.9772141436776351  0.2309529342578927  0.6556656695462024
  0.5240245232166814  0.4825437663891634  0.8454194294971202
  0.5240224308475376  0.2672470865133718  0.3457084777873689
  0.9757778185400170  0.0173483744613065  0.1544840349045487
  0.7082078355753296  0.2906817051106145  0.5910243671964679
  0.7926178228229332  0.0407343278612657  0.9089540573862465
  0.7924110883342692  0.2089291314932069  0.4091313262785761
  0.7074446782500843  0.4591368439269061  0.0910081709699497
  0.1889357772553666  0.6564740839248984  0.7404093576191642
  0.3112702166821180  0.9062648850222246  0.7596560854401417
  0.3108865856453420  0.8434849725735916  0.2597215829713093
  0.1890028780344082  0.5933359330522947  0.2404174059500335
  0.2770128614670213  0.5505723050954998  0.5913189235756207
  0.2227233538335085  0.8013665749415537  0.9088606720640655
  0.2227375109196572  0.9488154424295487  0.4090374467252431
  0.2773060378412211  0.6985982906772463  0.0912815862075149
  0.0402505492529031  0.9948191936659470  0.6555788434716447
  0.4612530451202517  0.7451107334184499  0.8458823522499088
  0.4611172095532368  0.5046143940951069  0.3458414119611035
  0.0388219297391288  0.7546968513062282  0.1542858823342783
  0.0549385399339002  0.6235067777138568  0.5032418004942016
  0.4449399299336818  0.8736475128901375  0.9967156168718247
  0.4448120811662406  0.8764639125138558  0.4967681922133949
  0.0550651591864835  0.6262566336587199  0.0033831755819165
  0.4757339024599503  0.7325781284784938  0.6543941267661708
  0.0243272940819352  0.9824339358636394  0.8456832454992806
  0.0242488472284492  0.7675415354395199  0.3456783588888825
  0.4757604089847263  0.5174084349986430  0.1544547091818202
  0.2076812884128074  0.7901510941934191  0.5908158491874360
  0.2924585266189723  0.5406277626697715  0.9088230383267444
  0.2925035732479060  0.7092299980143437  0.4090653644165769
  0.2074616763131445  0.9591315847175252  0.0909750966460123
  0.6890440483621916  0.6565660876513348  0.7403845343081841
  0.8109352545553890  0.9060797714999183  0.7597113945461800
  0.8112520269725252  0.8437435195842582  0.2598084577896742
  0.6890652580037866  0.5933514066672032  0.2404441749695962
  0.7772983398900521  0.5513926117771462  0.5912363437245034
  0.7227065100903332  0.8012922118374135  0.9089580619188240
  0.7227391736607487  0.9485813200376541  0.4088130031228943
  0.7773042383575728  0.6985913481176453  0.0912993929886881
  0.5394657695696310  0.9949910438799918  0.6540337795811624
  0.9613298706969076  0.7451678953191703  0.8458066131186825
  0.9613494565514671  0.5043447761953672  0.3461538533876194
  0.5388389773438576  0.7546912509585226  0.1542876289805903
  0.5550800985343471  0.6237169301731882  0.5033580843595118
  0.9448959418101168  0.8736455331067745  0.9967357013908824
  0.9451874941674845  0.8768587034231530  0.4968715973940903
  0.5550822962921345  0.6262527067542223  0.0033526039523082
  0.9756999536482382  0.7323666045353008  0.6543447697172411
  0.5242958247534233  0.9824859053530162  0.8456964244596392
  0.5242180136397749  0.7674864374091825  0.3456737651532364
  0.9757629491612008  0.5173644212071906  0.1544913322483126
  0.7074729563312587  0.7908379713564955  0.5909412854761911
  0.7927028226071826  0.5408274923053042  0.9089269540909157
  0.7927697998588528  0.7093320232094129  0.4093020715596154
  0.7074700833709002  0.9591209351647194  0.0909720705078101
 
  0.00000000E+00  0.00000000E+00  0.00000000E+00
  0.00000000E+00  0.00000000E+00  0.00000000E+00
  0.00000000E+00  0.00000000E+00  0.00000000E+00
  0.00000000E+00  0.00000000E+00  0.00000000E+00
  0.00000000E+00  0.00000000E+00  0.00000000E+00
  0.00000000E+00  0.00000000E+00  0.00000000E+00
  0.00000000E+00  0.00000000E+00  0.00000000E+00
  0.00000000E+00  0.00000000E+00  0.00000000E+00
  0.00000000E+00  0.00000000E+00  0.00000000E+00
  0.00000000E+00  0.00000000E+00  0.00000000E+00
  0.00000000E+00  0.00000000E+00  0.00000000E+00
  0.00000000E+00  0.00000000E+00  0.00000000E+00
  0.00000000E+00  0.00000000E+00  0.00000000E+00
  0.00000000E+00  0.00000000E+00  0.00000000E+00
  0.00000000E+00  0.00000000E+00  0.00000000E+00
  0.00000000E+00  0.00000000E+00  0.00000000E+00
  0.00000000E+00  0.00000000E+00  0.00000000E+00
  0.00000000E+00  0.00000000E+00  0.00000000E+00
  0.00000000E+00  0.00000000E+00  0.00000000E+00
  0.00000000E+00  0.00000000E+00  0.00000000E+00
  0.00000000E+00  0.00000000E+00  0.00000000E+00
  0.00000000E+00  0.00000000E+00  0.00000000E+00
  0.00000000E+00  0.00000000E+00  0.00000000E+00
  0.00000000E+00  0.00000000E+00  0.00000000E+00
  0.00000000E+00  0.00000000E+00  0.00000000E+00
  0.00000000E+00  0.00000000E+00  0.00000000E+00
  0.00000000E+00  0.00000000E+00  0.00000000E+00
  0.00000000E+00  0.00000000E+00  0.00000000E+00
  0.00000000E+00  0.00000000E+00  0.00000000E+00
  0.00000000E+00  0.00000000E+00  0.00000000E+00
  0.00000000E+00  0.00000000E+00  0.00000000E+00
  0.00000000E+00  0.00000000E+00  0.00000000E+00
  0.00000000E+00  0.00000000E+00  0.00000000E+00
  0.00000000E+00  0.00000000E+00  0.00000000E+00
  0.00000000E+00  0.00000000E+00  0.00000000E+00
  0.00000000E+00  0.00000000E+00  0.00000000E+00
  0.00000000E+00  0.00000000E+00  0.00000000E+00
  0.00000000E+00  0.00000000E+00  0.00000000E+00
  0.00000000E+00  0.00000000E+00  0.00000000E+00
  0.00000000E+00  0.00000000E+00  0.00000000E+00
  0.00000000E+00  0.00000000E+00  0.00000000E+00
  0.00000000E+00  0.00000000E+00  0.00000000E+00
  0.00000000E+00  0.00000000E+00  0.00000000E+00
  0.00000000E+00  0.00000000E+00  0.00000000E+00
  0.00000000E+00  0.00000000E+00  0.00000000E+00
  0.00000000E+00  0.00000000E+00  0.00000000E+00
  0.00000000E+00  0.00000000E+00  0.00000000E+00
  0.00000000E+00  0.00000000E+00  0.00000000E+00
  0.00000000E+00  0.00000000E+00  0.00000000E+00
  0.00000000E+00  0.00000000E+00  0.00000000E+00
  0.00000000E+00  0.00000000E+00  0.00000000E+00
  0.00000000E+00  0.00000000E+00  0.00000000E+00
  0.00000000E+00  0.00000000E+00  0.00000000E+00
  0.00000000E+00  0.00000000E+00  0.00000000E+00
  0.00000000E+00  0.00000000E+00  0.00000000E+00
  0.00000000E+00  0.00000000E+00  0.00000000E+00
  0.00000000E+00  0.00000000E+00  0.00000000E+00
  0.00000000E+00  0.00000000E+00  0.00000000E+00
  0.00000000E+00  0.00000000E+00  0.00000000E+00
  0.00000000E+00  0.00000000E+00  0.00000000E+00
  0.00000000E+00  0.00000000E+00  0.00000000E+00
  0.00000000E+00  0.00000000E+00  0.00000000E+00
  0.00000000E+00  0.00000000E+00  0.00000000E+00
  0.00000000E+00  0.00000000E+00  0.00000000E+00
  0.00000000E+00  0.00000000E+00  0.00000000E+00
  0.00000000E+00  0.00000000E+00  0.00000000E+00
  0.00000000E+00  0.00000000E+00  0.00000000E+00
  0.00000000E+00  0.00000000E+00  0.00000000E+00
  0.00000000E+00  0.00000000E+00  0.00000000E+00
  0.00000000E+00  0.00000000E+00  0.00000000E+00
  0.00000000E+00  0.00000000E+00  0.00000000E+00
  0.00000000E+00  0.00000000E+00  0.00000000E+00
  0.00000000E+00  0.00000000E+00  0.00000000E+00
  0.00000000E+00  0.00000000E+00  0.00000000E+00
  0.00000000E+00  0.00000000E+00  0.00000000E+00
  0.00000000E+00  0.00000000E+00  0.00000000E+00
  0.00000000E+00  0.00000000E+00  0.00000000E+00
  0.00000000E+00  0.00000000E+00  0.00000000E+00
  0.00000000E+00  0.00000000E+00  0.00000000E+00
  0.00000000E+00  0.00000000E+00  0.00000000E+00
  0.00000000E+00  0.00000000E+00  0.00000000E+00
  0.00000000E+00  0.00000000E+00  0.00000000E+00
  0.00000000E+00  0.00000000E+00  0.00000000E+00
  0.00000000E+00  0.00000000E+00  0.00000000E+00
  0.00000000E+00  0.00000000E+00  0.00000000E+00
  0.00000000E+00  0.00000000E+00  0.00000000E+00
  0.00000000E+00  0.00000000E+00  0.00000000E+00
  0.00000000E+00  0.00000000E+00  0.00000000E+00
  0.00000000E+00  0.00000000E+00  0.00000000E+00
  0.00000000E+00  0.00000000E+00  0.00000000E+00
  0.00000000E+00  0.00000000E+00  0.00000000E+00
  0.00000000E+00  0.00000000E+00  0.00000000E+00
  0.00000000E+00  0.00000000E+00  0.00000000E+00
  0.00000000E+00  0.00000000E+00  0.00000000E+00
  0.00000000E+00  0.00000000E+00  0.00000000E+00
  0.00000000E+00  0.00000000E+00  0.00000000E+00
  0.00000000E+00  0.00000000E+00  0.00000000E+00
  0.00000000E+00  0.00000000E+00  0.00000000E+00
  0.00000000E+00  0.00000000E+00  0.00000000E+00
  0.00000000E+00  0.00000000E+00  0.00000000E+00
  0.00000000E+00  0.00000000E+00  0.00000000E+00
  0.00000000E+00  0.00000000E+00  0.00000000E+00
  0.00000000E+00  0.00000000E+00  0.00000000E+00
  0.00000000E+00  0.00000000E+00  0.00000000E+00
  0.00000000E+00  0.00000000E+00  0.00000000E+00
  0.00000000E+00  0.00000000E+00  0.00000000E+00
  0.00000000E+00  0.00000000E+00  0.00000000E+00
  0.00000000E+00  0.00000000E+00  0.00000000E+00
  0.00000000E+00  0.00000000E+00  0.00000000E+00
  0.00000000E+00  0.00000000E+00  0.00000000E+00
  0.00000000E+00  0.00000000E+00  0.00000000E+00
  0.00000000E+00  0.00000000E+00  0.00000000E+00
  0.00000000E+00  0.00000000E+00  0.00000000E+00
  0.00000000E+00  0.00000000E+00  0.00000000E+00
  0.00000000E+00  0.00000000E+00  0.00000000E+00
  0.00000000E+00  0.00000000E+00  0.00000000E+00
  0.00000000E+00  0.00000000E+00  0.00000000E+00
  0.00000000E+00  0.00000000E+00  0.00000000E+00
  0.00000000E+00  0.00000000E+00  0.00000000E+00
  0.00000000E+00  0.00000000E+00  0.00000000E+00
  0.00000000E+00  0.00000000E+00  0.00000000E+00
  0.00000000E+00  0.00000000E+00  0.00000000E+00
  0.00000000E+00  0.00000000E+00  0.00000000E+00
  0.00000000E+00  0.00000000E+00  0.00000000E+00
  0.00000000E+00  0.00000000E+00  0.00000000E+00
  0.00000000E+00  0.00000000E+00  0.00000000E+00
  0.00000000E+00  0.00000000E+00  0.00000000E+00
  0.00000000E+00  0.00000000E+00  0.00000000E+00
